GaN                                     
   5.00000000000000     
     0.0000000000000000    0.4458404743733800    0.4458404743733800
     0.4458404743733800    0.0000000000000000    0.4458404743733800
     0.4458404743733800    0.4458404743733800    0.0000000000000000
   Ga   N 
     1     1
Direct
  0.0000000000000000  0.0000000000000000  0.0000000000000000
  0.2500000000000000  0.2500000000000000  0.2500000000000000
 
  0.00000000E+00  0.00000000E+00  0.00000000E+00
  0.00000000E+00  0.00000000E+00  0.00000000E+00
