AlN                                     
   5.00000000000000     
     0.0000000000000000    0.4345779520522348    0.4345779520522348
     0.4345779520522348    0.0000000000000000    0.4345779520522348
     0.4345779520522348    0.4345779520522348    0.0000000000000000
   Al   N 
     1     1
Direct
  0.0000000000000000  0.0000000000000000  0.0000000000000000
  0.2500000000000000  0.2500000000000000  0.2500000000000000
 
  0.00000000E+00  0.00000000E+00  0.00000000E+00
  0.00000000E+00  0.00000000E+00  0.00000000E+00
