
     Program PWSCF v.7.4.1 starts on 25Dec2025 at  0: 1:39 

     This program is part of the open-source Quantum ESPRESSO suite
     for quantum simulation of materials; please cite
         "P. Giannozzi et al., J. Phys.:Condens. Matter 21 395502 (2009);
         "P. Giannozzi et al., J. Phys.:Condens. Matter 29 465901 (2017);
         "P. Giannozzi et al., J. Chem. Phys. 152 154105 (2020);
          URL http://www.quantum-espresso.org", 
     in publications or presentations arising from this work. More details at
     http://www.quantum-espresso.org/quote

     Parallel version (MPI), running on     1 processors

     MPI processes distributed on     1 nodes
     438 MiB available memory on the printing compute node when the environment starts

     Waiting for input...
     Reading input from standard input
Warning: card &CELL ignored

     Current dimensions of program PWSCF are:
     Max number of different atomic species (ntypx) = 10
     Max number of k-points (npk) =  40000
     Max angular momentum in pseudopotentials (lmaxx) =  4
     Message from routine setup:
     using ibrav=0 with symmetry is DISCOURAGED, use correct ibrav instead

     Subspace diagonalization in iterative solution of the eigenvalue problem:
     a serial algorithm will be used


     G-vector sticks info
     --------------------
     sticks:   dense  smooth     PW     G-vecs:    dense   smooth      PW
     Sum        1333     673    211                31951    11311    1989

     Using Slab Decomposition



     bravais-lattice index     =            0
     lattice parameter (alat)  =       7.3155  a.u.
     unit-cell volume          =     276.8357 (a.u.)^3
     number of atoms/cell      =            2
     number of atomic types    =            1
     number of electrons       =        28.00
     number of Kohn-Sham states=           18
     kinetic-energy cutoff     =      45.0000  Ry
     charge density cutoff     =     360.0000  Ry
     scf convergence threshold =      4.0E-10
     mixing beta               =       0.4000
     number of iterations used =            8  plain     mixing
     Exchange-correlation= SLA  PW   PSX  PSC
                           (   1   4  10   8   0   0   0)

     celldm(1)=   7.315528  celldm(2)=   0.000000  celldm(3)=   0.000000
     celldm(4)=   0.000000  celldm(5)=   0.000000  celldm(6)=   0.000000

     crystal axes: (cart. coord. in units of alat)
               a(1) = (   0.000000   0.707107   0.707107 )  
               a(2) = (   0.707107   0.000000   0.707107 )  
               a(3) = (   0.707107   0.707107   0.000000 )  

     reciprocal axes: (cart. coord. in units 2 pi/alat)
               b(1) = ( -0.707107  0.707107  0.707107 )  
               b(2) = (  0.707107 -0.707107  0.707107 )  
               b(3) = (  0.707107  0.707107 -0.707107 )  


     PseudoPot. # 1 for Ge read from file:
     ./pseudo/ge_pbesol_v1.4.uspp.F.UPF
     MD5 check sum: 7bed0412183f5e553a4d27ec7023354d
     Pseudo is Ultrasoft + core correction, Zval = 14.0
     Generated by new atomic code, or converted to UPF format
     Using radial grid of  873 points,  6 beta functions with: 
                l(1) =   0
                l(2) =   0
                l(3) =   1
                l(4) =   1
                l(5) =   2
                l(6) =   2
     Q(r) pseudized with  8 coefficients,  rinner =    1.400   1.400   1.400
                                                       1.400   1.400

     atomic species   valence    mass     pseudopotential
     Ge               14.00    72.64000     Ge( 1.00)

     48 Sym. Ops., with inversion, found (24 have fractional translation)


                                    s                        frac. trans.

      isym =  1     identity                                     

 cryst.   s( 1) = (     1          0          0      )
                  (     0          1          0      )
                  (     0          0          1      )

 cart.    s( 1) = (  1.0000000  0.0000000  0.0000000 )
                  (  0.0000000  1.0000000  0.0000000 )
                  (  0.0000000  0.0000000  1.0000000 )


      isym =  2     180 deg rotation - cart. axis [0,0,1]        

 cryst.   s( 2) = (     0          1         -1      )
                  (     1          0         -1      )
                  (     0          0         -1      )

 cart.    s( 2) = ( -1.0000000  0.0000000  0.0000000 )
                  (  0.0000000 -1.0000000  0.0000000 )
                  (  0.0000000  0.0000000  1.0000000 )


      isym =  3     180 deg rotation - cart. axis [0,1,0]        

 cryst.   s( 3) = (     0         -1          1      )
                  (     0         -1          0      )
                  (     1         -1          0      )

 cart.    s( 3) = ( -1.0000000  0.0000000  0.0000000 )
                  (  0.0000000  1.0000000  0.0000000 )
                  (  0.0000000  0.0000000 -1.0000000 )


      isym =  4     180 deg rotation - cart. axis [1,0,0]        

 cryst.   s( 4) = (    -1          0          0      )
                  (    -1          0          1      )
                  (    -1          1          0      )

 cart.    s( 4) = (  1.0000000  0.0000000  0.0000000 )
                  (  0.0000000 -1.0000000  0.0000000 )
                  (  0.0000000  0.0000000 -1.0000000 )


      isym =  5     180 deg rotation - cart. axis [1,1,0]        

 cryst.   s( 5) = (    -1          0          1      )    f =( -0.2500000 )
                  (     0         -1          1      )       ( -0.2500000 )
                  (     0          0          1      )       ( -0.2500000 )

 cart.    s( 5) = (  0.0000000  1.0000000  0.0000000 )    f =( -0.3535534 )
                  (  1.0000000  0.0000000  0.0000000 )       ( -0.3535534 )
                  (  0.0000000  0.0000000 -1.0000000 )       ( -0.3535534 )


      isym =  6     180 deg rotation - cart. axis [1,-1,0]       

 cryst.   s( 6) = (     0         -1          0      )    f =( -0.2500000 )
                  (    -1          0          0      )       ( -0.2500000 )
                  (     0          0         -1      )       ( -0.2500000 )

 cart.    s( 6) = (  0.0000000 -1.0000000  0.0000000 )    f =( -0.3535534 )
                  ( -1.0000000  0.0000000  0.0000000 )       ( -0.3535534 )
                  (  0.0000000  0.0000000 -1.0000000 )       ( -0.3535534 )


      isym =  7      90 deg rotation - cart. axis [0,0,-1]       

 cryst.   s( 7) = (     0          1          0      )    f =( -0.2500000 )
                  (     0          1         -1      )       ( -0.2500000 )
                  (    -1          1          0      )       ( -0.2500000 )

 cart.    s( 7) = (  0.0000000  1.0000000  0.0000000 )    f =( -0.3535534 )
                  ( -1.0000000  0.0000000  0.0000000 )       ( -0.3535534 )
                  (  0.0000000  0.0000000  1.0000000 )       ( -0.3535534 )


      isym =  8      90 deg rotation - cart. axis [0,0,1]        

 cryst.   s( 8) = (     1          0         -1      )    f =( -0.2500000 )
                  (     1          0          0      )       ( -0.2500000 )
                  (     1         -1          0      )       ( -0.2500000 )

 cart.    s( 8) = (  0.0000000 -1.0000000  0.0000000 )    f =( -0.3535534 )
                  (  1.0000000  0.0000000  0.0000000 )       ( -0.3535534 )
                  (  0.0000000  0.0000000  1.0000000 )       ( -0.3535534 )


      isym =  9     180 deg rotation - cart. axis [1,0,1]        

 cryst.   s( 9) = (    -1          1          0      )    f =( -0.2500000 )
                  (     0          1          0      )       ( -0.2500000 )
                  (     0          1         -1      )       ( -0.2500000 )

 cart.    s( 9) = (  0.0000000  0.0000000  1.0000000 )    f =( -0.3535534 )
                  (  0.0000000 -1.0000000  0.0000000 )       ( -0.3535534 )
                  (  1.0000000  0.0000000  0.0000000 )       ( -0.3535534 )


      isym = 10     180 deg rotation - cart. axis [-1,0,1]       

 cryst.   s(10) = (     0          0         -1      )    f =( -0.2500000 )
                  (     0         -1          0      )       ( -0.2500000 )
                  (    -1          0          0      )       ( -0.2500000 )

 cart.    s(10) = (  0.0000000  0.0000000 -1.0000000 )    f =( -0.3535534 )
                  (  0.0000000 -1.0000000  0.0000000 )       ( -0.3535534 )
                  ( -1.0000000  0.0000000  0.0000000 )       ( -0.3535534 )


      isym = 11      90 deg rotation - cart. axis [0,1,0]        

 cryst.   s(11) = (     0          0          1      )    f =( -0.2500000 )
                  (    -1          0          1      )       ( -0.2500000 )
                  (     0         -1          1      )       ( -0.2500000 )

 cart.    s(11) = (  0.0000000  0.0000000  1.0000000 )    f =( -0.3535534 )
                  (  0.0000000  1.0000000  0.0000000 )       ( -0.3535534 )
                  ( -1.0000000  0.0000000  0.0000000 )       ( -0.3535534 )


      isym = 12      90 deg rotation - cart. axis [0,-1,0]       

 cryst.   s(12) = (     1         -1          0      )    f =( -0.2500000 )
                  (     1          0         -1      )       ( -0.2500000 )
                  (     1          0          0      )       ( -0.2500000 )

 cart.    s(12) = (  0.0000000  0.0000000 -1.0000000 )    f =( -0.3535534 )
                  (  0.0000000  1.0000000  0.0000000 )       ( -0.3535534 )
                  (  1.0000000  0.0000000  0.0000000 )       ( -0.3535534 )


      isym = 13     180 deg rotation - cart. axis [0,1,1]        

 cryst.   s(13) = (     1          0          0      )    f =( -0.2500000 )
                  (     1         -1          0      )       ( -0.2500000 )
                  (     1          0         -1      )       ( -0.2500000 )

 cart.    s(13) = ( -1.0000000  0.0000000  0.0000000 )    f =( -0.3535534 )
                  (  0.0000000  0.0000000  1.0000000 )       ( -0.3535534 )
                  (  0.0000000  1.0000000  0.0000000 )       ( -0.3535534 )


      isym = 14     180 deg rotation - cart. axis [0,1,-1]       

 cryst.   s(14) = (    -1          0          0      )    f =( -0.2500000 )
                  (     0          0         -1      )       ( -0.2500000 )
                  (     0         -1          0      )       ( -0.2500000 )

 cart.    s(14) = ( -1.0000000  0.0000000  0.0000000 )    f =( -0.3535534 )
                  (  0.0000000  0.0000000 -1.0000000 )       ( -0.3535534 )
                  (  0.0000000 -1.0000000  0.0000000 )       ( -0.3535534 )


      isym = 15      90 deg rotation - cart. axis [-1,0,0]       

 cryst.   s(15) = (     0         -1          1      )    f =( -0.2500000 )
                  (     0          0          1      )       ( -0.2500000 )
                  (    -1          0          1      )       ( -0.2500000 )

 cart.    s(15) = (  1.0000000  0.0000000  0.0000000 )    f =( -0.3535534 )
                  (  0.0000000  0.0000000  1.0000000 )       ( -0.3535534 )
                  (  0.0000000 -1.0000000  0.0000000 )       ( -0.3535534 )


      isym = 16      90 deg rotation - cart. axis [1,0,0]        

 cryst.   s(16) = (     0          1         -1      )    f =( -0.2500000 )
                  (    -1          1          0      )       ( -0.2500000 )
                  (     0          1          0      )       ( -0.2500000 )

 cart.    s(16) = (  1.0000000  0.0000000  0.0000000 )    f =( -0.3535534 )
                  (  0.0000000  0.0000000 -1.0000000 )       ( -0.3535534 )
                  (  0.0000000  1.0000000  0.0000000 )       ( -0.3535534 )


      isym = 17     120 deg rotation - cart. axis [-1,-1,-1]     

 cryst.   s(17) = (     0          0          1      )
                  (     1          0          0      )
                  (     0          1          0      )

 cart.    s(17) = (  0.0000000  1.0000000  0.0000000 )
                  (  0.0000000  0.0000000  1.0000000 )
                  (  1.0000000  0.0000000  0.0000000 )


      isym = 18     120 deg rotation - cart. axis [-1,1,1]       

 cryst.   s(18) = (     1         -1          0      )
                  (     0         -1          1      )
                  (     0         -1          0      )

 cart.    s(18) = (  0.0000000 -1.0000000  0.0000000 )
                  (  0.0000000  0.0000000  1.0000000 )
                  ( -1.0000000  0.0000000  0.0000000 )


      isym = 19     120 deg rotation - cart. axis [1,1,-1]       

 cryst.   s(19) = (    -1          1          0      )
                  (    -1          0          0      )
                  (    -1          0          1      )

 cart.    s(19) = (  0.0000000  1.0000000  0.0000000 )
                  (  0.0000000  0.0000000 -1.0000000 )
                  ( -1.0000000  0.0000000  0.0000000 )


      isym = 20     120 deg rotation - cart. axis [1,-1,1]       

 cryst.   s(20) = (     0          0         -1      )
                  (     0          1         -1      )
                  (     1          0         -1      )

 cart.    s(20) = (  0.0000000 -1.0000000  0.0000000 )
                  (  0.0000000  0.0000000 -1.0000000 )
                  (  1.0000000  0.0000000  0.0000000 )


      isym = 21     120 deg rotation - cart. axis [1,1,1]        

 cryst.   s(21) = (     0          1          0      )
                  (     0          0          1      )
                  (     1          0          0      )

 cart.    s(21) = (  0.0000000  0.0000000  1.0000000 )
                  (  1.0000000  0.0000000  0.0000000 )
                  (  0.0000000  1.0000000  0.0000000 )


      isym = 22     120 deg rotation - cart. axis [-1,1,-1]      

 cryst.   s(22) = (    -1          0          1      )
                  (    -1          1          0      )
                  (    -1          0          0      )

 cart.    s(22) = (  0.0000000  0.0000000  1.0000000 )
                  ( -1.0000000  0.0000000  0.0000000 )
                  (  0.0000000 -1.0000000  0.0000000 )


      isym = 23     120 deg rotation - cart. axis [1,-1,-1]      

 cryst.   s(23) = (     1          0         -1      )
                  (     0          0         -1      )
                  (     0          1         -1      )

 cart.    s(23) = (  0.0000000  0.0000000 -1.0000000 )
                  ( -1.0000000  0.0000000  0.0000000 )
                  (  0.0000000  1.0000000  0.0000000 )


      isym = 24     120 deg rotation - cart. axis [-1,-1,1]      

 cryst.   s(24) = (     0         -1          0      )
                  (     1         -1          0      )
                  (     0         -1          1      )

 cart.    s(24) = (  0.0000000  0.0000000 -1.0000000 )
                  (  1.0000000  0.0000000  0.0000000 )
                  (  0.0000000 -1.0000000  0.0000000 )


      isym = 25     inversion                                    

 cryst.   s(25) = (    -1          0          0      )    f =( -0.2500000 )
                  (     0         -1          0      )       ( -0.2500000 )
                  (     0          0         -1      )       ( -0.2500000 )

 cart.    s(25) = ( -1.0000000  0.0000000  0.0000000 )    f =( -0.3535534 )
                  (  0.0000000 -1.0000000  0.0000000 )       ( -0.3535534 )
                  (  0.0000000  0.0000000 -1.0000000 )       ( -0.3535534 )


      isym = 26     inv. 180 deg rotation - cart. axis [0,0,1]   

 cryst.   s(26) = (     0         -1          1      )    f =( -0.2500000 )
                  (    -1          0          1      )       ( -0.2500000 )
                  (     0          0          1      )       ( -0.2500000 )

 cart.    s(26) = (  1.0000000  0.0000000  0.0000000 )    f =( -0.3535534 )
                  (  0.0000000  1.0000000  0.0000000 )       ( -0.3535534 )
                  (  0.0000000  0.0000000 -1.0000000 )       ( -0.3535534 )


      isym = 27     inv. 180 deg rotation - cart. axis [0,1,0]   

 cryst.   s(27) = (     0          1         -1      )    f =( -0.2500000 )
                  (     0          1          0      )       ( -0.2500000 )
                  (    -1          1          0      )       ( -0.2500000 )

 cart.    s(27) = (  1.0000000  0.0000000  0.0000000 )    f =( -0.3535534 )
                  (  0.0000000 -1.0000000  0.0000000 )       ( -0.3535534 )
                  (  0.0000000  0.0000000  1.0000000 )       ( -0.3535534 )


      isym = 28     inv. 180 deg rotation - cart. axis [1,0,0]   

 cryst.   s(28) = (     1          0          0      )    f =( -0.2500000 )
                  (     1          0         -1      )       ( -0.2500000 )
                  (     1         -1          0      )       ( -0.2500000 )

 cart.    s(28) = ( -1.0000000  0.0000000  0.0000000 )    f =( -0.3535534 )
                  (  0.0000000  1.0000000  0.0000000 )       ( -0.3535534 )
                  (  0.0000000  0.0000000  1.0000000 )       ( -0.3535534 )


      isym = 29     inv. 180 deg rotation - cart. axis [1,1,0]   

 cryst.   s(29) = (     1          0         -1      )
                  (     0          1         -1      )
                  (     0          0         -1      )

 cart.    s(29) = (  0.0000000 -1.0000000  0.0000000 )
                  ( -1.0000000  0.0000000  0.0000000 )
                  (  0.0000000  0.0000000  1.0000000 )


      isym = 30     inv. 180 deg rotation - cart. axis [1,-1,0]  

 cryst.   s(30) = (     0          1          0      )
                  (     1          0          0      )
                  (     0          0          1      )

 cart.    s(30) = (  0.0000000  1.0000000  0.0000000 )
                  (  1.0000000  0.0000000  0.0000000 )
                  (  0.0000000  0.0000000  1.0000000 )


      isym = 31     inv.  90 deg rotation - cart. axis [0,0,-1]  

 cryst.   s(31) = (     0         -1          0      )
                  (     0         -1          1      )
                  (     1         -1          0      )

 cart.    s(31) = (  0.0000000 -1.0000000  0.0000000 )
                  (  1.0000000  0.0000000  0.0000000 )
                  (  0.0000000  0.0000000 -1.0000000 )


      isym = 32     inv.  90 deg rotation - cart. axis [0,0,1]   

 cryst.   s(32) = (    -1          0          1      )
                  (    -1          0          0      )
                  (    -1          1          0      )

 cart.    s(32) = (  0.0000000  1.0000000  0.0000000 )
                  ( -1.0000000  0.0000000  0.0000000 )
                  (  0.0000000  0.0000000 -1.0000000 )


      isym = 33     inv. 180 deg rotation - cart. axis [1,0,1]   

 cryst.   s(33) = (     1         -1          0      )
                  (     0         -1          0      )
                  (     0         -1          1      )

 cart.    s(33) = (  0.0000000  0.0000000 -1.0000000 )
                  (  0.0000000  1.0000000  0.0000000 )
                  ( -1.0000000  0.0000000  0.0000000 )


      isym = 34     inv. 180 deg rotation - cart. axis [-1,0,1]  

 cryst.   s(34) = (     0          0          1      )
                  (     0          1          0      )
                  (     1          0          0      )

 cart.    s(34) = (  0.0000000  0.0000000  1.0000000 )
                  (  0.0000000  1.0000000  0.0000000 )
                  (  1.0000000  0.0000000  0.0000000 )


      isym = 35     inv.  90 deg rotation - cart. axis [0,1,0]   

 cryst.   s(35) = (     0          0         -1      )
                  (     1          0         -1      )
                  (     0          1         -1      )

 cart.    s(35) = (  0.0000000  0.0000000 -1.0000000 )
                  (  0.0000000 -1.0000000  0.0000000 )
                  (  1.0000000  0.0000000  0.0000000 )


      isym = 36     inv.  90 deg rotation - cart. axis [0,-1,0]  

 cryst.   s(36) = (    -1          1          0      )
                  (    -1          0          1      )
                  (    -1          0          0      )

 cart.    s(36) = (  0.0000000  0.0000000  1.0000000 )
                  (  0.0000000 -1.0000000  0.0000000 )
                  ( -1.0000000  0.0000000  0.0000000 )


      isym = 37     inv. 180 deg rotation - cart. axis [0,1,1]   

 cryst.   s(37) = (    -1          0          0      )
                  (    -1          1          0      )
                  (    -1          0          1      )

 cart.    s(37) = (  1.0000000  0.0000000  0.0000000 )
                  (  0.0000000  0.0000000 -1.0000000 )
                  (  0.0000000 -1.0000000  0.0000000 )


      isym = 38     inv. 180 deg rotation - cart. axis [0,1,-1]  

 cryst.   s(38) = (     1          0          0      )
                  (     0          0          1      )
                  (     0          1          0      )

 cart.    s(38) = (  1.0000000  0.0000000  0.0000000 )
                  (  0.0000000  0.0000000  1.0000000 )
                  (  0.0000000  1.0000000  0.0000000 )


      isym = 39     inv.  90 deg rotation - cart. axis [-1,0,0]  

 cryst.   s(39) = (     0          1         -1      )
                  (     0          0         -1      )
                  (     1          0         -1      )

 cart.    s(39) = ( -1.0000000  0.0000000  0.0000000 )
                  (  0.0000000  0.0000000 -1.0000000 )
                  (  0.0000000  1.0000000  0.0000000 )


      isym = 40     inv.  90 deg rotation - cart. axis [1,0,0]   

 cryst.   s(40) = (     0         -1          1      )
                  (     1         -1          0      )
                  (     0         -1          0      )

 cart.    s(40) = ( -1.0000000  0.0000000  0.0000000 )
                  (  0.0000000  0.0000000  1.0000000 )
                  (  0.0000000 -1.0000000  0.0000000 )


      isym = 41     inv. 120 deg rotation - cart. axis [-1,-1,-1]

 cryst.   s(41) = (     0          0         -1      )    f =( -0.2500000 )
                  (    -1          0          0      )       ( -0.2500000 )
                  (     0         -1          0      )       ( -0.2500000 )

 cart.    s(41) = (  0.0000000 -1.0000000  0.0000000 )    f =( -0.3535534 )
                  (  0.0000000  0.0000000 -1.0000000 )       ( -0.3535534 )
                  ( -1.0000000  0.0000000  0.0000000 )       ( -0.3535534 )


      isym = 42     inv. 120 deg rotation - cart. axis [-1,1,1]  

 cryst.   s(42) = (    -1          1          0      )    f =( -0.2500000 )
                  (     0          1         -1      )       ( -0.2500000 )
                  (     0          1          0      )       ( -0.2500000 )

 cart.    s(42) = (  0.0000000  1.0000000  0.0000000 )    f =( -0.3535534 )
                  (  0.0000000  0.0000000 -1.0000000 )       ( -0.3535534 )
                  (  1.0000000  0.0000000  0.0000000 )       ( -0.3535534 )


      isym = 43     inv. 120 deg rotation - cart. axis [1,1,-1]  

 cryst.   s(43) = (     1         -1          0      )    f =( -0.2500000 )
                  (     1          0          0      )       ( -0.2500000 )
                  (     1          0         -1      )       ( -0.2500000 )

 cart.    s(43) = (  0.0000000 -1.0000000  0.0000000 )    f =( -0.3535534 )
                  (  0.0000000  0.0000000  1.0000000 )       ( -0.3535534 )
                  (  1.0000000  0.0000000  0.0000000 )       ( -0.3535534 )


      isym = 44     inv. 120 deg rotation - cart. axis [1,-1,1]  

 cryst.   s(44) = (     0          0          1      )    f =( -0.2500000 )
                  (     0         -1          1      )       ( -0.2500000 )
                  (    -1          0          1      )       ( -0.2500000 )

 cart.    s(44) = (  0.0000000  1.0000000  0.0000000 )    f =( -0.3535534 )
                  (  0.0000000  0.0000000  1.0000000 )       ( -0.3535534 )
                  ( -1.0000000  0.0000000  0.0000000 )       ( -0.3535534 )


      isym = 45     inv. 120 deg rotation - cart. axis [1,1,1]   

 cryst.   s(45) = (     0         -1          0      )    f =( -0.2500000 )
                  (     0          0         -1      )       ( -0.2500000 )
                  (    -1          0          0      )       ( -0.2500000 )

 cart.    s(45) = (  0.0000000  0.0000000 -1.0000000 )    f =( -0.3535534 )
                  ( -1.0000000  0.0000000  0.0000000 )       ( -0.3535534 )
                  (  0.0000000 -1.0000000  0.0000000 )       ( -0.3535534 )


      isym = 46     inv. 120 deg rotation - cart. axis [-1,1,-1] 

 cryst.   s(46) = (     1          0         -1      )    f =( -0.2500000 )
                  (     1         -1          0      )       ( -0.2500000 )
                  (     1          0          0      )       ( -0.2500000 )

 cart.    s(46) = (  0.0000000  0.0000000 -1.0000000 )    f =( -0.3535534 )
                  (  1.0000000  0.0000000  0.0000000 )       ( -0.3535534 )
                  (  0.0000000  1.0000000  0.0000000 )       ( -0.3535534 )


      isym = 47     inv. 120 deg rotation - cart. axis [1,-1,-1] 

 cryst.   s(47) = (    -1          0          1      )    f =( -0.2500000 )
                  (     0          0          1      )       ( -0.2500000 )
                  (     0         -1          1      )       ( -0.2500000 )

 cart.    s(47) = (  0.0000000  0.0000000  1.0000000 )    f =( -0.3535534 )
                  (  1.0000000  0.0000000  0.0000000 )       ( -0.3535534 )
                  (  0.0000000 -1.0000000  0.0000000 )       ( -0.3535534 )


      isym = 48     inv. 120 deg rotation - cart. axis [-1,-1,1] 

 cryst.   s(48) = (     0          1          0      )    f =( -0.2500000 )
                  (    -1          1          0      )       ( -0.2500000 )
                  (     0          1         -1      )       ( -0.2500000 )

 cart.    s(48) = (  0.0000000  0.0000000  1.0000000 )    f =( -0.3535534 )
                  ( -1.0000000  0.0000000  0.0000000 )       ( -0.3535534 )
                  (  0.0000000  1.0000000  0.0000000 )       ( -0.3535534 )


   Cartesian axes

     site n.     atom                  positions (alat units)
         1        Ge     tau(   1) = (   0.7071068   0.7071068   0.7071068  )
         2        Ge     tau(   2) = (   1.0606602   1.0606602   1.0606602  )

   Crystallographic axes

     site n.     atom                  positions (cryst. coord.)
         1        Ge     tau(   1) = (  0.5000000  0.5000000  0.5000000  )
         2        Ge     tau(   2) = (  0.7500000  0.7500000  0.7500000  )

     number of k points=    84  Marzari-Vanderbilt smearing, width (Ry)=  0.0200
                       cart. coord. in units 2pi/alat
        k(    1) = (   0.0000000   0.0000000   0.0000000), wk =   0.0009103
        k(    2) = (   0.0543928   0.0543928  -0.0543928), wk =   0.0072827
        k(    3) = (   0.1087857   0.1087857  -0.1087857), wk =   0.0072827
        k(    4) = (   0.1631785   0.1631785  -0.1631785), wk =   0.0072827
        k(    5) = (   0.2175713   0.2175713  -0.2175713), wk =   0.0072827
        k(    6) = (   0.2719641   0.2719641  -0.2719641), wk =   0.0072827
        k(    7) = (   0.3263570   0.3263570  -0.3263570), wk =   0.0072827
        k(    8) = (   0.1087857   0.0000000   0.0000000), wk =   0.0054620
        k(    9) = (   0.1631785   0.0543928  -0.0543928), wk =   0.0218480
        k(   10) = (   0.2175713   0.1087857  -0.1087857), wk =   0.0218480
        k(   11) = (   0.2719641   0.1631785  -0.1631785), wk =   0.0218480
        k(   12) = (   0.3263570   0.2175713  -0.2175713), wk =   0.0218480
        k(   13) = (   0.3807498   0.2719641  -0.2719641), wk =   0.0218480
        k(   14) = (  -0.2719641  -0.3807498   0.3807498), wk =   0.0218480
        k(   15) = (  -0.2175713  -0.3263570   0.3263570), wk =   0.0218480
        k(   16) = (  -0.1631785  -0.2719641   0.2719641), wk =   0.0218480
        k(   17) = (  -0.1087857  -0.2175713   0.2175713), wk =   0.0218480
        k(   18) = (  -0.0543928  -0.1631785   0.1631785), wk =   0.0218480
        k(   19) = (   0.0000000  -0.1087857   0.1087857), wk =   0.0109240
        k(   20) = (   0.2175713   0.0000000   0.0000000), wk =   0.0054620
        k(   21) = (   0.2719641   0.0543928  -0.0543928), wk =   0.0218480
        k(   22) = (   0.3263570   0.1087857  -0.1087857), wk =   0.0218480
        k(   23) = (   0.3807498   0.1631785  -0.1631785), wk =   0.0218480
        k(   24) = (   0.4351426   0.2175713  -0.2175713), wk =   0.0218480
        k(   25) = (  -0.2175713  -0.4351426   0.4351426), wk =   0.0218480
        k(   26) = (  -0.1631785  -0.3807498   0.3807498), wk =   0.0218480
        k(   27) = (  -0.1087857  -0.3263570   0.3263570), wk =   0.0218480
        k(   28) = (  -0.0543928  -0.2719641   0.2719641), wk =   0.0218480
        k(   29) = (   0.0000000  -0.2175713   0.2175713), wk =   0.0109240
        k(   30) = (   0.3263570   0.0000000   0.0000000), wk =   0.0054620
        k(   31) = (   0.3807498   0.0543928  -0.0543928), wk =   0.0218480
        k(   32) = (   0.4351426   0.1087857  -0.1087857), wk =   0.0218480
        k(   33) = (   0.4895355   0.1631785  -0.1631785), wk =   0.0218480
        k(   34) = (  -0.1631785  -0.4895355   0.4895355), wk =   0.0218480
        k(   35) = (  -0.1087857  -0.4351426   0.4351426), wk =   0.0218480
        k(   36) = (  -0.0543928  -0.3807498   0.3807498), wk =   0.0218480
        k(   37) = (   0.0000000  -0.3263570   0.3263570), wk =   0.0109240
        k(   38) = (   0.4351426   0.0000000   0.0000000), wk =   0.0054620
        k(   39) = (   0.4895355   0.0543928  -0.0543928), wk =   0.0218480
        k(   40) = (   0.5439283   0.1087857  -0.1087857), wk =   0.0218480
        k(   41) = (  -0.1087857  -0.5439283   0.5439283), wk =   0.0218480
        k(   42) = (  -0.0543928  -0.4895355   0.4895355), wk =   0.0218480
        k(   43) = (   0.0000000  -0.4351426   0.4351426), wk =   0.0109240
        k(   44) = (   0.5439283   0.0000000   0.0000000), wk =   0.0054620
        k(   45) = (   0.5983211   0.0543928  -0.0543928), wk =   0.0218480
        k(   46) = (  -0.0543928  -0.5983211   0.5983211), wk =   0.0218480
        k(   47) = (   0.0000000  -0.5439283   0.5439283), wk =   0.0109240
        k(   48) = (   0.6527140   0.0000000   0.0000000), wk =   0.0054620
        k(   49) = (   0.0000000  -0.6527140   0.6527140), wk =   0.0109240
        k(   50) = (   0.2175713   0.1087857   0.0000000), wk =   0.0218480
        k(   51) = (   0.2719641   0.1631785  -0.0543928), wk =   0.0436959
        k(   52) = (   0.3263570   0.2175713  -0.1087857), wk =   0.0436959
        k(   53) = (   0.3807498   0.2719641  -0.1631785), wk =   0.0436959
        k(   54) = (  -0.2719641  -0.3807498   0.4895355), wk =   0.0436959
        k(   55) = (   0.3263570   0.1087857   0.0000000), wk =   0.0218480
        k(   56) = (   0.3807498   0.1631785  -0.0543928), wk =   0.0436959
        k(   57) = (   0.4351426   0.2175713  -0.1087857), wk =   0.0436959
        k(   58) = (  -0.2175713  -0.4351426   0.5439283), wk =   0.0436959
        k(   59) = (  -0.1631785  -0.3807498   0.4895355), wk =   0.0436959
        k(   60) = (  -0.1087857  -0.3263570   0.4351426), wk =   0.0436959
        k(   61) = (  -0.0543928  -0.2719641   0.3807498), wk =   0.0436959
        k(   62) = (   0.0000000  -0.2175713   0.3263570), wk =   0.0218480
        k(   63) = (   0.4351426   0.1087857   0.0000000), wk =   0.0218480
        k(   64) = (   0.4895355   0.1631785  -0.0543928), wk =   0.0436959
        k(   65) = (  -0.1631785  -0.4895355   0.5983211), wk =   0.0436959
        k(   66) = (  -0.1087857  -0.4351426   0.5439283), wk =   0.0436959
        k(   67) = (  -0.0543928  -0.3807498   0.4895355), wk =   0.0436959
        k(   68) = (   0.0000000  -0.3263570   0.4351426), wk =   0.0218480
        k(   69) = (   0.5439283   0.1087857   0.0000000), wk =   0.0218480
        k(   70) = (  -0.1087857  -0.5439283   0.6527140), wk =   0.0436959
        k(   71) = (  -0.0543928  -0.4895355   0.5983211), wk =   0.0436959
        k(   72) = (   0.0000000  -0.4351426   0.5439283), wk =   0.0218480
        k(   73) = (  -0.0543928  -0.5983211   0.7071068), wk =   0.0218480
        k(   74) = (   0.0000000  -0.5439283   0.6527140), wk =   0.0218480
        k(   75) = (   0.4351426   0.2175713   0.0000000), wk =   0.0218480
        k(   76) = (  -0.2175713  -0.4351426   0.6527140), wk =   0.0436959
        k(   77) = (  -0.1631785  -0.3807498   0.5983211), wk =   0.0436959
        k(   78) = (  -0.1631785  -0.4895355   0.7071068), wk =   0.0218480
        k(   79) = (  -0.1087857  -0.4351426   0.6527140), wk =   0.0436959
        k(   80) = (  -0.0543928  -0.3807498   0.5983211), wk =   0.0436959
        k(   81) = (   0.0000000  -0.3263570   0.5439283), wk =   0.0218480
        k(   82) = (  -0.0543928  -0.4895355   0.7071068), wk =   0.0218480
        k(   83) = (   0.0000000  -0.4351426   0.6527140), wk =   0.0218480
        k(   84) = (  -0.0543928  -0.3807498   0.7071068), wk =   0.0218480

                       cryst. coord.
        k(    1) = (   0.0000000   0.0000000   0.0000000), wk =   0.0009103
        k(    2) = (   0.0000000   0.0000000   0.0769231), wk =   0.0072827
        k(    3) = (   0.0000000   0.0000000   0.1538462), wk =   0.0072827
        k(    4) = (   0.0000000   0.0000000   0.2307692), wk =   0.0072827
        k(    5) = (   0.0000000   0.0000000   0.3076923), wk =   0.0072827
        k(    6) = (   0.0000000   0.0000000   0.3846154), wk =   0.0072827
        k(    7) = (   0.0000000   0.0000000   0.4615385), wk =   0.0072827
        k(    8) = (   0.0000000   0.0769231   0.0769231), wk =   0.0054620
        k(    9) = (   0.0000000   0.0769231   0.1538462), wk =   0.0218480
        k(   10) = (   0.0000000   0.0769231   0.2307692), wk =   0.0218480
        k(   11) = (   0.0000000   0.0769231   0.3076923), wk =   0.0218480
        k(   12) = (   0.0000000   0.0769231   0.3846154), wk =   0.0218480
        k(   13) = (   0.0000000   0.0769231   0.4615385), wk =   0.0218480
        k(   14) = (   0.0000000   0.0769231  -0.4615385), wk =   0.0218480
        k(   15) = (   0.0000000   0.0769231  -0.3846154), wk =   0.0218480
        k(   16) = (   0.0000000   0.0769231  -0.3076923), wk =   0.0218480
        k(   17) = (   0.0000000   0.0769231  -0.2307692), wk =   0.0218480
        k(   18) = (   0.0000000   0.0769231  -0.1538462), wk =   0.0218480
        k(   19) = (   0.0000000   0.0769231  -0.0769231), wk =   0.0109240
        k(   20) = (   0.0000000   0.1538462   0.1538462), wk =   0.0054620
        k(   21) = (   0.0000000   0.1538462   0.2307692), wk =   0.0218480
        k(   22) = (   0.0000000   0.1538462   0.3076923), wk =   0.0218480
        k(   23) = (   0.0000000   0.1538462   0.3846154), wk =   0.0218480
        k(   24) = (   0.0000000   0.1538462   0.4615385), wk =   0.0218480
        k(   25) = (   0.0000000   0.1538462  -0.4615385), wk =   0.0218480
        k(   26) = (   0.0000000   0.1538462  -0.3846154), wk =   0.0218480
        k(   27) = (   0.0000000   0.1538462  -0.3076923), wk =   0.0218480
        k(   28) = (   0.0000000   0.1538462  -0.2307692), wk =   0.0218480
        k(   29) = (   0.0000000   0.1538462  -0.1538462), wk =   0.0109240
        k(   30) = (   0.0000000   0.2307692   0.2307692), wk =   0.0054620
        k(   31) = (   0.0000000   0.2307692   0.3076923), wk =   0.0218480
        k(   32) = (   0.0000000   0.2307692   0.3846154), wk =   0.0218480
        k(   33) = (   0.0000000   0.2307692   0.4615385), wk =   0.0218480
        k(   34) = (   0.0000000   0.2307692  -0.4615385), wk =   0.0218480
        k(   35) = (   0.0000000   0.2307692  -0.3846154), wk =   0.0218480
        k(   36) = (   0.0000000   0.2307692  -0.3076923), wk =   0.0218480
        k(   37) = (   0.0000000   0.2307692  -0.2307692), wk =   0.0109240
        k(   38) = (   0.0000000   0.3076923   0.3076923), wk =   0.0054620
        k(   39) = (   0.0000000   0.3076923   0.3846154), wk =   0.0218480
        k(   40) = (   0.0000000   0.3076923   0.4615385), wk =   0.0218480
        k(   41) = (   0.0000000   0.3076923  -0.4615385), wk =   0.0218480
        k(   42) = (   0.0000000   0.3076923  -0.3846154), wk =   0.0218480
        k(   43) = (   0.0000000   0.3076923  -0.3076923), wk =   0.0109240
        k(   44) = (   0.0000000   0.3846154   0.3846154), wk =   0.0054620
        k(   45) = (   0.0000000   0.3846154   0.4615385), wk =   0.0218480
        k(   46) = (   0.0000000   0.3846154  -0.4615385), wk =   0.0218480
        k(   47) = (   0.0000000   0.3846154  -0.3846154), wk =   0.0109240
        k(   48) = (   0.0000000   0.4615385   0.4615385), wk =   0.0054620
        k(   49) = (   0.0000000   0.4615385  -0.4615385), wk =   0.0109240
        k(   50) = (   0.0769231   0.1538462   0.2307692), wk =   0.0218480
        k(   51) = (   0.0769231   0.1538462   0.3076923), wk =   0.0436959
        k(   52) = (   0.0769231   0.1538462   0.3846154), wk =   0.0436959
        k(   53) = (   0.0769231   0.1538462   0.4615385), wk =   0.0436959
        k(   54) = (   0.0769231   0.1538462  -0.4615385), wk =   0.0436959
        k(   55) = (   0.0769231   0.2307692   0.3076923), wk =   0.0218480
        k(   56) = (   0.0769231   0.2307692   0.3846154), wk =   0.0436959
        k(   57) = (   0.0769231   0.2307692   0.4615385), wk =   0.0436959
        k(   58) = (   0.0769231   0.2307692  -0.4615385), wk =   0.0436959
        k(   59) = (   0.0769231   0.2307692  -0.3846154), wk =   0.0436959
        k(   60) = (   0.0769231   0.2307692  -0.3076923), wk =   0.0436959
        k(   61) = (   0.0769231   0.2307692  -0.2307692), wk =   0.0436959
        k(   62) = (   0.0769231   0.2307692  -0.1538462), wk =   0.0218480
        k(   63) = (   0.0769231   0.3076923   0.3846154), wk =   0.0218480
        k(   64) = (   0.0769231   0.3076923   0.4615385), wk =   0.0436959
        k(   65) = (   0.0769231   0.3076923  -0.4615385), wk =   0.0436959
        k(   66) = (   0.0769231   0.3076923  -0.3846154), wk =   0.0436959
        k(   67) = (   0.0769231   0.3076923  -0.3076923), wk =   0.0436959
        k(   68) = (   0.0769231   0.3076923  -0.2307692), wk =   0.0218480
        k(   69) = (   0.0769231   0.3846154   0.4615385), wk =   0.0218480
        k(   70) = (   0.0769231   0.3846154  -0.4615385), wk =   0.0436959
        k(   71) = (   0.0769231   0.3846154  -0.3846154), wk =   0.0436959
        k(   72) = (   0.0769231   0.3846154  -0.3076923), wk =   0.0218480
        k(   73) = (   0.0769231   0.4615385  -0.4615385), wk =   0.0218480
        k(   74) = (   0.0769231   0.4615385  -0.3846154), wk =   0.0218480
        k(   75) = (   0.1538462   0.3076923   0.4615385), wk =   0.0218480
        k(   76) = (   0.1538462   0.3076923  -0.4615385), wk =   0.0436959
        k(   77) = (   0.1538462   0.3076923  -0.3846154), wk =   0.0436959
        k(   78) = (   0.1538462   0.3846154  -0.4615385), wk =   0.0218480
        k(   79) = (   0.1538462   0.3846154  -0.3846154), wk =   0.0436959
        k(   80) = (   0.1538462   0.3846154  -0.3076923), wk =   0.0436959
        k(   81) = (   0.1538462   0.3846154  -0.2307692), wk =   0.0218480
        k(   82) = (   0.1538462   0.4615385  -0.3846154), wk =   0.0218480
        k(   83) = (   0.1538462   0.4615385  -0.3076923), wk =   0.0218480
        k(   84) = (   0.2307692   0.4615385  -0.3076923), wk =   0.0218480

     Dense  grid:    31951 G-vectors     FFT dimensions: (  48,  48,  48)

     Smooth grid:    11311 G-vectors     FFT dimensions: (  32,  32,  32)

     Dynamical RAM for                 wfc:       0.39 MB

     Dynamical RAM for     wfc (w. buffer):      32.94 MB

     Dynamical RAM for           str. fact:       0.49 MB

     Dynamical RAM for           local pot:       0.00 MB

     Dynamical RAM for          nlocal pot:       0.78 MB

     Dynamical RAM for                qrad:       1.52 MB

     Dynamical RAM for          rho,v,vnew:       3.99 MB

     Dynamical RAM for               rhoin:       1.33 MB

     Dynamical RAM for            rho*nmix:       7.80 MB

     Dynamical RAM for           G-vectors:       1.91 MB

     Dynamical RAM for          h,s,v(r/c):       0.06 MB

     Dynamical RAM for          <psi|beta>:       0.01 MB

     Dynamical RAM for                 psi:       0.78 MB

     Dynamical RAM for                hpsi:       0.78 MB

     Dynamical RAM for                spsi:       0.78 MB

     Dynamical RAM for      wfcinit/wfcrot:       0.78 MB

     Dynamical RAM for           addusdens:      91.66 MB

     Dynamical RAM for          addusforce:      92.88 MB

     Dynamical RAM for         addusstress:      97.99 MB

     Estimated static dynamical RAM per process >      48.16 MB

     Estimated max dynamical RAM per process >     153.95 MB

     Initial potential from superposition of free atoms

     starting charge      27.9984, renormalised to      28.0000
     Starting wfcs are   18 randomized atomic wfcs

     total cpu time spent up to now is        3.3 secs

     Self-consistent Calculation

     iteration #  1     ecut=    45.00 Ry     beta= 0.40
     Davidson diagonalization with overlap

---- Real-time Memory Report at c_bands before calling an iterative solver
           135 MiB given to the printing process from OS
             0 MiB allocation reported by mallinfo(arena+hblkhd)
           360 MiB available memory on the node where the printing process lives
------------------
     ethr =  1.00E-02,  avg # of iterations =  3.3

     Threshold (ethr) on eigenvalues was too large:
     Diagonalizing with lowered threshold

     Davidson diagonalization with overlap

---- Real-time Memory Report at c_bands before calling an iterative solver
           171 MiB given to the printing process from OS
             0 MiB allocation reported by mallinfo(arena+hblkhd)
           427 MiB available memory on the node where the printing process lives
------------------
     ethr =  1.34E-04,  avg # of iterations =  2.4

     total cpu time spent up to now is       21.7 secs

     WARNING: integrated charge=    28.00101456, expected=    28.00000000

     total energy              =    -426.37256239 Ry
     estimated scf accuracy    <       0.03861996 Ry

     iteration #  2     ecut=    45.00 Ry     beta= 0.40
     Davidson diagonalization with overlap

---- Real-time Memory Report at c_bands before calling an iterative solver
           172 MiB given to the printing process from OS
             0 MiB allocation reported by mallinfo(arena+hblkhd)
           373 MiB available memory on the node where the printing process lives
------------------
     ethr =  1.38E-04,  avg # of iterations =  1.0

     total cpu time spent up to now is       29.7 secs

     WARNING: integrated charge=    28.00016004, expected=    28.00000000

     total energy              =    -426.37164606 Ry
     estimated scf accuracy    <       0.01089619 Ry

     iteration #  3     ecut=    45.00 Ry     beta= 0.40
     Davidson diagonalization with overlap

---- Real-time Memory Report at c_bands before calling an iterative solver
           173 MiB given to the printing process from OS
             0 MiB allocation reported by mallinfo(arena+hblkhd)
           363 MiB available memory on the node where the printing process lives
------------------
     ethr =  3.89E-05,  avg # of iterations =  2.1

     total cpu time spent up to now is       38.5 secs

     WARNING: integrated charge=    28.00001723, expected=    28.00000000

     total energy              =    -426.37222403 Ry
     estimated scf accuracy    <       0.00010368 Ry

     iteration #  4     ecut=    45.00 Ry     beta= 0.40
     Davidson diagonalization with overlap

---- Real-time Memory Report at c_bands before calling an iterative solver
           173 MiB given to the printing process from OS
             0 MiB allocation reported by mallinfo(arena+hblkhd)
           344 MiB available memory on the node where the printing process lives
------------------
     ethr =  3.70E-07,  avg # of iterations =  3.2

     total cpu time spent up to now is       49.5 secs

     WARNING: integrated charge=    28.00001100, expected=    28.00000000

     total energy              =    -426.37224398 Ry
     estimated scf accuracy    <       0.00000382 Ry

     iteration #  5     ecut=    45.00 Ry     beta= 0.40
     Davidson diagonalization with overlap

---- Real-time Memory Report at c_bands before calling an iterative solver
           174 MiB given to the printing process from OS
             0 MiB allocation reported by mallinfo(arena+hblkhd)
           382 MiB available memory on the node where the printing process lives
------------------
     ethr =  1.36E-08,  avg # of iterations =  2.1

     total cpu time spent up to now is       59.1 secs

     total energy              =    -426.37224407 Ry
     estimated scf accuracy    <       0.00000110 Ry

     iteration #  6     ecut=    45.00 Ry     beta= 0.40
     Davidson diagonalization with overlap

---- Real-time Memory Report at c_bands before calling an iterative solver
           174 MiB given to the printing process from OS
             0 MiB allocation reported by mallinfo(arena+hblkhd)
           375 MiB available memory on the node where the printing process lives
------------------
     ethr =  3.93E-09,  avg # of iterations =  2.0

     total cpu time spent up to now is       69.4 secs

     total energy              =    -426.37224435 Ry
     estimated scf accuracy    <       0.00000016 Ry

     iteration #  7     ecut=    45.00 Ry     beta= 0.40
     Davidson diagonalization with overlap

---- Real-time Memory Report at c_bands before calling an iterative solver
           174 MiB given to the printing process from OS
             0 MiB allocation reported by mallinfo(arena+hblkhd)
           360 MiB available memory on the node where the printing process lives
------------------
     ethr =  5.88E-10,  avg # of iterations =  2.0

     total cpu time spent up to now is       80.5 secs

     total energy              =    -426.37224440 Ry
     estimated scf accuracy    <       0.00000009 Ry

     iteration #  8     ecut=    45.00 Ry     beta= 0.40
     Davidson diagonalization with overlap

---- Real-time Memory Report at c_bands before calling an iterative solver
           175 MiB given to the printing process from OS
             0 MiB allocation reported by mallinfo(arena+hblkhd)
           354 MiB available memory on the node where the printing process lives
------------------
     ethr =  3.28E-10,  avg # of iterations =  2.0

     total cpu time spent up to now is       90.2 secs

     End of self-consistent calculation

          k = 0.0000 0.0000 0.0000 (  1411 PWs)   bands (ev):

   -15.2760 -15.2760 -15.2760 -15.2312 -15.2312 -14.9602 -14.9602 -14.9602
   -14.9356 -14.9356  -3.8912   9.7011   9.7011   9.7011  10.6143  12.2634
    12.2634  12.2634

     occupation numbers 
     1.0000   1.0000   1.0000   1.0000   1.0000   1.0000   1.0000   1.0000
     1.0000   1.0000   1.0000   0.5474   0.5474   0.5474   0.0000   0.0000
     0.0000   0.0000

          k = 0.0544 0.0544-0.0544 (  1423 PWs)   bands (ev):

   -15.2811 -15.2811 -15.2748 -15.2245 -15.2245 -14.9664 -14.9664 -14.9618
   -14.9304 -14.9304  -3.8116   8.4545   9.5333   9.5333  11.1881  12.4833
    12.4833  12.7249

     occupation numbers 
     1.0000   1.0000   1.0000   1.0000   1.0000   1.0000   1.0000   1.0000
     1.0000   1.0000   1.0000   1.0000   0.9573   0.9573   0.0000   0.0000
     0.0000   0.0000

          k = 0.1088 0.1088-0.1088 (  1417 PWs)   bands (ev):

   -15.2902 -15.2902 -15.2714 -15.2106 -15.2106 -14.9775 -14.9775 -14.9659
   -14.9217 -14.9217  -3.5750   6.7879   9.1706   9.1706  11.0634  12.9543
    12.9543  14.0422

     occupation numbers 
     1.0000   1.0000   1.0000   1.0000   1.0000   1.0000   1.0000   1.0000
     1.0000   1.0000   1.0000   1.0000   1.0289   1.0289   0.0000   0.0000
     0.0000   0.0000

          k = 0.1632 0.1632-0.1632 (  1396 PWs)   bands (ev):

   -15.2980 -15.2980 -15.2666 -15.1967 -15.1967 -14.9875 -14.9875 -14.9718
   -14.9143 -14.9143  -3.1890   5.1789   8.7915   8.7915  10.7408  13.3633
    13.3633  15.5021

     occupation numbers 
     1.0000   1.0000   1.0000   1.0000   1.0000   1.0000   1.0000   1.0000
     1.0000   1.0000   1.0000   1.0000   1.0001   1.0001   0.0000   0.0000
     0.0000   0.0000

          k = 0.2176 0.2176-0.2176 (  1399 PWs)   bands (ev):

   -15.3031 -15.3031 -15.2616 -15.1862 -15.1862 -14.9944 -14.9944 -14.9782
   -14.9093 -14.9093  -2.6744   3.7163   8.4770   8.4770  10.4542  13.5257
    13.5257  16.8223

     occupation numbers 
     1.0000   1.0000   1.0000   1.0000   1.0000   1.0000   1.0000   1.0000
     1.0000   1.0000   1.0000   1.0000   1.0000   1.0000   0.0000   0.0000
     0.0000   0.0000

          k = 0.2720 0.2720-0.2720 (  1422 PWs)   bands (ev):

   -15.3058 -15.3058 -15.2573 -15.1801 -15.1801 -14.9978 -14.9978 -14.9837
   -14.9064 -14.9064  -2.0894   2.4876   8.2580   8.2580  10.2536  13.5036
    13.5036  16.8808

     occupation numbers 
     1.0000   1.0000   1.0000   1.0000   1.0000   1.0000   1.0000   1.0000
     1.0000   1.0000   1.0000   1.0000   1.0000   1.0000   0.0008   0.0000
     0.0000   0.0000

          k = 0.3264 0.3264-0.3264 (  1407 PWs)   bands (ev):

   -15.3067 -15.3067 -15.2548 -15.1776 -15.1776 -14.9989 -14.9989 -14.9867
   -14.9052 -14.9052  -1.6130   1.6862   8.1465   8.1465  10.1518  13.4504
    13.4504  16.7166

     occupation numbers 
     1.0000   1.0000   1.0000   1.0000   1.0000   1.0000   1.0000   1.0000
     1.0000   1.0000   1.0000   1.0000   1.0000   1.0000   0.0049   0.0000
     0.0000   0.0000

          k = 0.1088 0.0000 0.0000 (  1419 PWs)   bands (ev):

   -15.2822 -15.2788 -15.2788 -15.2267 -15.2174 -14.9812 -14.9557 -14.9557
   -14.9397 -14.9245  -3.7850   8.4849   9.2206   9.2206  11.7790  11.9295
    12.8759  12.8759

     occupation numbers 
     1.0000   1.0000   1.0000   1.0000   1.0000   1.0000   1.0000   1.0000
     1.0000   1.0000   1.0000   1.0000   1.0440   1.0440   0.0000   0.0000
     0.0000   0.0000

          k = 0.1632 0.0544-0.0544 (  1420 PWs)   bands (ev):

   -15.2913 -15.2847 -15.2764 -15.2176 -15.2029 -14.9968 -14.9611 -14.9547
   -14.9349 -14.9173  -3.6003   7.1963   8.8069   8.9392  11.8139  12.1340
    13.4448  13.8530

     occupation numbers 
     1.0000   1.0000   1.0000   1.0000   1.0000   1.0000   1.0000   1.0000
     1.0000   1.0000   1.0000   1.0000   1.0001   1.0015   0.0000   0.0000
     0.0000   0.0000

          k = 0.2176 0.1088-0.1088 (  1407 PWs)   bands (ev):

   -15.3011 -15.2925 -15.2701 -15.2045 -15.1876 -15.0098 -14.9723 -14.9598
   -14.9253 -14.9094  -3.2629   5.6524   8.4287   8.5521  11.5565  12.5946
    13.9231  14.9149

     occupation numbers 
     1.0000   1.0000   1.0000   1.0000   1.0000   1.0000   1.0000   1.0000
     1.0000   1.0000   1.0000   1.0000   1.0000   1.0000   0.0000   0.0000
     0.0000   0.0000

          k = 0.2720 0.1632-0.1632 (  1406 PWs)   bands (ev):

   -15.3086 -15.2989 -15.2622 -15.1923 -15.1758 -15.0179 -14.9825 -14.9686
   -14.9171 -14.9027  -2.7877   4.1751   8.1429   8.1449  11.2513  13.0077
    14.1083  15.7100

     occupation numbers 
     1.0000   1.0000   1.0000   1.0000   1.0000   1.0000   1.0000   1.0000
     1.0000   1.0000   1.0000   1.0000   1.0000   1.0000   0.0000   0.0000
     0.0000   0.0000

          k = 0.3264 0.2176-0.2176 (  1412 PWs)   bands (ev):

   -15.3131 -15.3035 -15.2542 -15.1828 -15.1700 -15.0193 -14.9912 -14.9785
   -14.9107 -14.8984  -2.2151   2.8761   7.7950   7.9788  11.0071  13.1637
    14.0261  16.5558

     occupation numbers 
     1.0000   1.0000   1.0000   1.0000   1.0000   1.0000   1.0000   1.0000
     1.0000   1.0000   1.0000   1.0000   1.0000   1.0000   0.0000   0.0000
     0.0000   0.0000

          k = 0.3807 0.2720-0.2720 (  1418 PWs)   bands (ev):

   -15.3149 -15.3067 -15.2479 -15.1758 -15.1702 -15.0143 -14.9986 -14.9875
   -14.9057 -14.8968  -1.6678   1.9067   7.5416   7.9377  10.8547  13.2139
    13.8497  17.0349

     occupation numbers 
     1.0000   1.0000   1.0000   1.0000   1.0000   1.0000   1.0000   1.0000
     1.0000   1.0000   1.0000   1.0000   1.0000   1.0000   0.0000   0.0000
     0.0000   0.0000

          k =-0.2720-0.3807 0.3807 (  1419 PWs)   bands (ev):

   -15.3142 -15.3090 -15.2452 -15.1741 -15.1710 -15.0052 -15.0046 -14.9938
   -14.9021 -14.8982  -1.4725   1.6056   7.3992   8.0199  10.8039  13.3031
    13.6970  17.1193

     occupation numbers 
     1.0000   1.0000   1.0000   1.0000   1.0000   1.0000   1.0000   1.0000
     1.0000   1.0000   1.0000   1.0000   1.0000   1.0000   0.0000   0.0000
     0.0000   0.0000

          k =-0.2176-0.3264 0.3264 (  1415 PWs)   bands (ev):

   -15.3114 -15.3102 -15.2472 -15.1798 -15.1691 -15.0099 -14.9979 -14.9910
   -14.9025 -14.9002  -1.8336   2.1799   7.3785   8.2173  10.8563  13.4678
    13.5966  17.1386

     occupation numbers 
     1.0000   1.0000   1.0000   1.0000   1.0000   1.0000   1.0000   1.0000
     1.0000   1.0000   1.0000   1.0000   1.0000   1.0000   0.0000   0.0000
     0.0000   0.0000

          k =-0.1632-0.2720 0.2720 (  1410 PWs)   bands (ev):

   -15.3095 -15.3065 -15.2533 -15.1870 -15.1722 -15.0104 -14.9970 -14.9772
   -14.9095 -14.9006  -2.4133   3.2854   7.4876   8.5148  11.0083  13.4942
    13.6495  16.6713

     occupation numbers 
     1.0000   1.0000   1.0000   1.0000   1.0000   1.0000   1.0000   1.0000
     1.0000   1.0000   1.0000   1.0000   1.0000   1.0000   0.0000   0.0000
     0.0000   0.0000

          k =-0.1088-0.2176 0.2176 (  1401 PWs)   bands (ev):

   -15.3060 -15.2994 -15.2616 -15.1962 -15.1814 -15.0051 -14.9925 -14.9634
   -14.9190 -14.9039  -2.9607   4.6521   7.7335   8.8852  11.2462  13.2661
    13.6441  15.6727

     occupation numbers 
     1.0000   1.0000   1.0000   1.0000   1.0000   1.0000   1.0000   1.0000
     1.0000   1.0000   1.0000   1.0000   1.0000   1.0006   0.0000   0.0000
     0.0000   0.0000

          k =-0.0544-0.1632 0.1632 (  1403 PWs)   bands (ev):

   -15.2992 -15.2904 -15.2697 -15.2077 -15.1957 -14.9945 -14.9845 -14.9520
   -14.9302 -14.9103  -3.3923   6.1453   8.1300   9.2719  11.5183  12.8644
    13.1902  14.7482

     occupation numbers 
     1.0000   1.0000   1.0000   1.0000   1.0000   1.0000   1.0000   1.0000
     1.0000   1.0000   1.0000   1.0000   1.0000   1.0616   0.0000   0.0000
     0.0000   0.0000

          k = 0.0000-0.1088 0.1088 (  1413 PWs)   bands (ev):

   -15.2900 -15.2819 -15.2753 -15.2192 -15.2117 -14.9808 -14.9742 -14.9510
   -14.9355 -14.9194  -3.6795   7.5624   8.7456   9.5499  11.5739  12.4979
    12.6284  13.6982

     occupation numbers 
     1.0000   1.0000   1.0000   1.0000   1.0000   1.0000   1.0000   1.0000
     1.0000   1.0000   1.0000   1.0000   1.0000   0.9271   0.0000   0.0000
     0.0000   0.0000

          k = 0.2176 0.0000 0.0000 (  1407 PWs)   bands (ev):

   -15.2890 -15.2863 -15.2863 -15.2135 -15.1874 -15.0182 -14.9517 -14.9433
   -14.9433 -14.9163  -3.4674   6.9244   8.3694   8.3694  11.2771  12.9095
    14.1159  14.1159

     occupation numbers 
     1.0000   1.0000   1.0000   1.0000   1.0000   1.0000   1.0000   1.0000
     1.0000   1.0000   1.0000   1.0000   1.0000   1.0000   0.0000   0.0000
     0.0000   0.0000

          k = 0.2720 0.0544-0.0544 (  1399 PWs)   bands (ev):

   -15.3000 -15.2922 -15.2795 -15.2023 -15.1702 -15.0367 -14.9647 -14.9427
   -14.9315 -14.9111  -3.1800   5.8389   7.9405   7.9800  11.2868  12.9115
    14.6670  14.7268

     occupation numbers 
     1.0000   1.0000   1.0000   1.0000   1.0000   1.0000   1.0000   1.0000
     1.0000   1.0000   1.0000   1.0000   1.0000   1.0000   0.0000   0.0000
     0.0000   0.0000

          k = 0.3264 0.1088-0.1088 (  1406 PWs)   bands (ev):

   -15.3113 -15.2986 -15.2674 -15.1893 -15.1560 -15.0497 -14.9787 -14.9536
   -14.9203 -14.9010  -2.7485   4.5242   7.4346   7.6952  11.5212  13.0307
    14.6550  15.0378

     occupation numbers 
     1.0000   1.0000   1.0000   1.0000   1.0000   1.0000   1.0000   1.0000
     1.0000   1.0000   1.0000   1.0000   1.0000   1.0000   0.0000   0.0000
     0.0000   0.0000

          k = 0.3807 0.1632-0.1632 (  1417 PWs)   bands (ev):

   -15.3202 -15.3042 -15.2534 -15.1770 -15.1485 -15.0542 -14.9919 -14.9689
   -14.9110 -14.8917  -2.2010   3.2558   6.9552   7.5394  11.5051  13.3987
    14.9382  14.9919

     occupation numbers 
     1.0000   1.0000   1.0000   1.0000   1.0000   1.0000   1.0000   1.0000
     1.0000   1.0000   1.0000   1.0000   1.0000   1.0000   0.0000   0.0000
     0.0000   0.0000

          k = 0.4351 0.2176-0.2176 (  1420 PWs)   bands (ev):

   -15.3257 -15.3087 -15.2403 -15.1663 -15.1495 -15.0492 -15.0046 -14.9840
   -14.9033 -14.8857  -1.6198   2.2021   6.5695   7.5213  11.4248  13.4892
    14.7623  15.9614

     occupation numbers 
     1.0000   1.0000   1.0000   1.0000   1.0000   1.0000   1.0000   1.0000
     1.0000   1.0000   1.0000   1.0000   1.0000   1.0000   0.0000   0.0000
     0.0000   0.0000

          k =-0.2176-0.4351 0.4351 (  1412 PWs)   bands (ev):

   -15.3275 -15.3124 -15.2310 -15.1577 -15.1575 -15.0362 -15.0163 -14.9955
   -14.8975 -14.8840  -1.2588   1.6514   6.3068   7.6397  11.4182  13.5057
    14.5061  17.2296

     occupation numbers 
     1.0000   1.0000   1.0000   1.0000   1.0000   1.0000   1.0000   1.0000
     1.0000   1.0000   1.0000   1.0000   1.0000   1.0000   0.0000   0.0000
     0.0000   0.0000

          k =-0.1632-0.3807 0.3807 (  1409 PWs)   bands (ev):

   -15.3253 -15.3149 -15.2283 -15.1694 -15.1521 -15.0253 -15.0187 -15.0009
   -14.8941 -14.8875  -1.4634   1.9587   6.1868   7.8847  11.5096  13.6035
    14.2768  17.5707

     occupation numbers 
     1.0000   1.0000   1.0000   1.0000   1.0000   1.0000   1.0000   1.0000
     1.0000   1.0000   1.0000   1.0000   1.0000   1.0000   0.0000   0.0000
     0.0000   0.0000

          k =-0.1088-0.3264 0.3264 (  1420 PWs)   bands (ev):

   -15.3193 -15.3154 -15.2340 -15.1808 -15.1532 -15.0282 -15.0076 -14.9918
   -14.8961 -14.8934  -2.0147   2.8939   6.2325   8.2350  11.6831  13.7904
    14.0350  16.4264

     occupation numbers 
     1.0000   1.0000   1.0000   1.0000   1.0000   1.0000   1.0000   1.0000
     1.0000   1.0000   1.0000   1.0000   1.0000   1.0000   0.0000   0.0000
     0.0000   0.0000

          k =-0.0544-0.2720 0.2720 (  1401 PWs)   bands (ev):

   -15.3131 -15.3100 -15.2464 -15.1904 -15.1625 -15.0228 -15.0029 -14.9711
   -14.9093 -14.8958  -2.5856   4.0797   6.4894   8.6498  11.8899  13.6740
    13.8860  15.3481

     occupation numbers 
     1.0000   1.0000   1.0000   1.0000   1.0000   1.0000   1.0000   1.0000
     1.0000   1.0000   1.0000   1.0000   1.0000   1.0000   0.0000   0.0000
     0.0000   0.0000

          k = 0.0000-0.2176 0.2176 (  1390 PWs)   bands (ev):

   -15.3076 -15.2990 -15.2603 -15.1995 -15.1781 -15.0105 -14.9953 -14.9525
   -14.9253 -14.9015  -3.0577   5.2502   7.0777   9.0469  11.9626  13.1964
    13.4567  15.0381

     occupation numbers 
     1.0000   1.0000   1.0000   1.0000   1.0000   1.0000   1.0000   1.0000
     1.0000   1.0000   1.0000   1.0000   1.0000   1.0072   0.0000   0.0000
     0.0000   0.0000

          k = 0.3264 0.0000 0.0000 (  1395 PWs)   bands (ev):

   -15.2962 -15.2962 -15.2885 -15.1923 -15.1502 -15.0614 -14.9711 -14.9265
   -14.9265 -14.9188  -2.9421   5.3743   7.5725   7.5725  10.6704  12.7830
    15.5419  15.5419

     occupation numbers 
     1.0000   1.0000   1.0000   1.0000   1.0000   1.0000   1.0000   1.0000
     1.0000   1.0000   1.0000   1.0000   1.0000   1.0000   0.0000   0.0000
     0.0000   0.0000

          k = 0.3807 0.0544-0.0544 (  1401 PWs)   bands (ev):

   -15.3080 -15.3016 -15.2764 -15.1789 -15.1321 -15.0808 -14.9845 -14.9378
   -14.9168 -14.9065  -2.5564   4.4482   7.0792   7.2683  10.7485  12.5174
    15.6615  16.0983

     occupation numbers 
     1.0000   1.0000   1.0000   1.0000   1.0000   1.0000   1.0000   1.0000
     1.0000   1.0000   1.0000   1.0000   1.0000   1.0000   0.0000   0.0000
     0.0000   0.0000

          k = 0.4351 0.1088-0.1088 (  1411 PWs)   bands (ev):

   -15.3207 -15.3069 -15.2580 -15.1649 -15.1204 -15.0912 -14.9997 -14.9583
   -14.9072 -14.8916  -2.0422   3.3910   6.4427   7.0960  11.0189  12.8496
    15.3632  16.2089

     occupation numbers 
     1.0000   1.0000   1.0000   1.0000   1.0000   1.0000   1.0000   1.0000
     1.0000   1.0000   1.0000   1.0000   1.0000   1.0000   0.0000   0.0000
     0.0000   0.0000

          k = 0.4895 0.1632-0.1632 (  1413 PWs)   bands (ev):

   -15.3306 -15.3116 -15.2389 -15.1515 -15.1199 -15.0889 -15.0153 -14.9793
   -14.8991 -14.8802  -1.4542   2.3949   5.8721   7.0673  11.0911  13.8949
    15.1094  16.0024

     occupation numbers 
     1.0000   1.0000   1.0000   1.0000   1.0000   1.0000   1.0000   1.0000
     1.0000   1.0000   1.0000   1.0000   1.0000   1.0000   0.0000   0.0000
     0.0000   0.0000

          k =-0.1632-0.4895 0.4895 (  1420 PWs)   bands (ev):

   -15.3363 -15.3156 -15.2238 -15.1396 -15.1281 -15.0773 -15.0304 -14.9956
   -14.8930 -14.8740  -0.9732   1.7068   5.4540   7.1831  11.1696  14.7250
    15.5540  15.6892

     occupation numbers 
     1.0000   1.0000   1.0000   1.0000   1.0000   1.0000   1.0000   1.0000
     1.0000   1.0000   1.0000   1.0000   1.0000   1.0000   0.0000   0.0000
     0.0000   0.0000

          k =-0.1088-0.4351 0.4351 (  1419 PWs)   bands (ev):

   -15.3369 -15.3184 -15.2158 -15.1445 -15.1316 -15.0574 -15.0422 -15.0037
   -14.8894 -14.8739  -1.0004   1.7505   5.2279   7.4344  11.3525  14.7128
    15.3517  17.1000

     occupation numbers 
     1.0000   1.0000   1.0000   1.0000   1.0000   1.0000   1.0000   1.0000
     1.0000   1.0000   1.0000   1.0000   1.0000   1.0000   0.0000   0.0000
     0.0000   0.0000

          k =-0.0544-0.3807 0.3807 (  1413 PWs)   bands (ev):

   -15.3321 -15.3193 -15.2167 -15.1649 -15.1326 -15.0455 -15.0325 -15.0035
   -14.8884 -14.8805  -1.5004   2.4639   5.2458   7.7997  11.6313  14.7624
    14.9389  16.2792

     occupation numbers 
     1.0000   1.0000   1.0000   1.0000   1.0000   1.0000   1.0000   1.0000
     1.0000   1.0000   1.0000   1.0000   1.0000   1.0000   0.0000   0.0000
     0.0000   0.0000

          k = 0.0000-0.3264 0.3264 (  1406 PWs)   bands (ev):

   -15.3225 -15.3177 -15.2281 -15.1810 -15.1445 -15.0377 -15.0133 -14.9913
   -14.8932 -14.8905  -2.0822   3.3458   5.6212   8.2346  11.9134  14.3421
    14.7178  15.1215

     occupation numbers 
     1.0000   1.0000   1.0000   1.0000   1.0000   1.0000   1.0000   1.0000
     1.0000   1.0000   1.0000   1.0000   1.0000   1.0000   0.0000   0.0000
     0.0000   0.0000

          k = 0.4351 0.0000 0.0000 (  1403 PWs)   bands (ev):

   -15.3059 -15.3059 -15.2788 -15.1647 -15.1092 -15.1072 -14.9968 -14.9324
   -14.9094 -14.9094  -2.2156   3.8591   6.9368   6.9368  10.2420  11.8685
    17.0302  17.0302

     occupation numbers 
     1.0000   1.0000   1.0000   1.0000   1.0000   1.0000   1.0000   1.0000
     1.0000   1.0000   1.0000   1.0000   1.0000   1.0000   0.0010   0.0000
     0.0000   0.0000

          k = 0.4895 0.0544-0.0544 (  1406 PWs)   bands (ev):

   -15.3157 -15.3103 -15.2632 -15.1493 -15.1260 -15.0911 -15.0123 -14.9509
   -14.9015 -14.8960  -1.7390   3.0509   6.4477   6.7353  10.3984  11.6635
    17.1001  17.4916

     occupation numbers 
     1.0000   1.0000   1.0000   1.0000   1.0000   1.0000   1.0000   1.0000
     1.0000   1.0000   1.0000   1.0000   1.0000   1.0000   0.0000   0.0000
     0.0000   0.0000

          k = 0.5439 0.1088-0.1088 (  1405 PWs)   bands (ev):

   -15.3281 -15.3143 -15.2405 -15.1341 -15.1339 -15.0812 -15.0291 -14.9757
   -14.8946 -14.8816  -1.1622   2.2224   5.7421   6.6790  10.6321  12.2895
    16.7923  17.4238

     occupation numbers 
     1.0000   1.0000   1.0000   1.0000   1.0000   1.0000   1.0000   1.0000
     1.0000   1.0000   1.0000   1.0000   1.0000   1.0000   0.0000   0.0000
     0.0000   0.0000

          k =-0.1088-0.5439 0.5439 (  1411 PWs)   bands (ev):

   -15.3377 -15.3176 -15.2210 -15.1273 -15.1197 -15.0848 -15.0461 -14.9964
   -14.8895 -14.8713  -0.6069   1.5414   5.1265   6.7712  10.7495  13.6057
    16.5088  17.0908

     occupation numbers 
     1.0000   1.0000   1.0000   1.0000   1.0000   1.0000   1.0000   1.0000
     1.0000   1.0000   1.0000   1.0000   1.0000   1.0000   0.0000   0.0000
     0.0000   0.0000

          k =-0.0544-0.4895 0.4895 (  1416 PWs)   bands (ev):

   -15.3421 -15.3200 -15.2110 -15.1109 -15.1103 -15.0981 -15.0593 -15.0060
   -14.8866 -14.8671  -0.4773   1.4062   4.7555   7.0053  10.9550  15.2350
    16.3139  16.6157

     occupation numbers 
     1.0000   1.0000   1.0000   1.0000   1.0000   1.0000   1.0000   1.0000
     1.0000   1.0000   1.0000   1.0000   1.0000   1.0000   0.0000   0.0000
     0.0000   0.0000

          k = 0.0000-0.4351 0.4351 (  1428 PWs)   bands (ev):

   -15.3403 -15.3208 -15.2097 -15.1375 -15.1151 -15.0677 -15.0588 -15.0071
   -14.8862 -14.8702  -0.9249   1.9035   4.7502   7.3618  11.2755  15.9006
    16.0849  16.3731

     occupation numbers 
     1.0000   1.0000   1.0000   1.0000   1.0000   1.0000   1.0000   1.0000
     1.0000   1.0000   1.0000   1.0000   1.0000   1.0000   0.0000   0.0000
     0.0000   0.0000

          k = 0.5439 0.0000 0.0000 (  1399 PWs)   bands (ev):

   -15.3135 -15.3135 -15.2594 -15.1527 -15.1324 -15.0668 -15.0276 -14.9560
   -14.8956 -14.8956  -1.2987   2.4026   6.4993   6.4993  10.0411  11.0155
    18.5146  18.5147

     occupation numbers 
     1.0000   1.0000   1.0000   1.0000   1.0000   1.0000   1.0000   1.0000
     1.0000   1.0000   1.0000   1.0000   1.0000   1.0000   0.0250   0.0000
     0.0000   0.0000

          k = 0.5983 0.0544-0.0544 (  1405 PWs)   bands (ev):

   -15.3212 -15.3163 -15.2403 -15.1691 -15.1156 -15.0500 -15.0448 -14.9767
   -14.8907 -14.8865  -0.7430   1.6897   6.0664   6.4075  10.2606  11.0052
    18.5810  18.8375

     occupation numbers 
     1.0000   1.0000   1.0000   1.0000   1.0000   1.0000   1.0000   1.0000
     1.0000   1.0000   1.0000   1.0000   1.0000   1.0000   0.0007   0.0000
     0.0000   0.0000

          k =-0.0544-0.5983 0.5983 (  1405 PWs)   bands (ev):

   -15.3322 -15.3185 -15.2180 -15.1688 -15.0995 -15.0627 -15.0475 -14.9999
   -14.8873 -14.8754  -0.1498   1.0556   5.3892   6.4660  10.4296  11.9762
    18.2518  18.5353

     occupation numbers 
     1.0000   1.0000   1.0000   1.0000   1.0000   1.0000   1.0000   1.0000
     1.0000   1.0000   1.0000   1.0000   1.0000   1.0000   0.0000   0.0000
     0.0000   0.0000

          k = 0.0000-0.5439 0.5439 (  1416 PWs)   bands (ev):

   -15.3402 -15.3199 -15.2103 -15.1420 -15.0931 -15.0724 -15.0709 -15.0074
   -14.8859 -14.8680   0.0023   0.9393   4.8633   6.6706  10.6278  13.4854
    17.7218  17.7855

     occupation numbers 
     1.0000   1.0000   1.0000   1.0000   1.0000   1.0000   1.0000   1.0000
     1.0000   1.0000   1.0000   1.0000   1.0000   1.0000   0.0000   0.0000
     0.0000   0.0000

          k = 0.6527 0.0000 0.0000 (  1391 PWs)   bands (ev):

   -15.3177 -15.3177 -15.2310 -15.1947 -15.0974 -15.0618 -15.0255 -14.9878
   -14.8880 -14.8880  -0.2073   1.0361   6.2770   6.2770  10.0930  10.4151
    19.7766  19.7766

     occupation numbers 
     1.0000   1.0000   1.0000   1.0000   1.0000   1.0000   1.0000   1.0000
     1.0000   1.0000   1.0000   1.0000   1.0000   1.0000   0.0121   0.0000
     0.0000   0.0000

          k = 0.0000-0.6527 0.6527 (  1402 PWs)   bands (ev):

   -15.3231 -15.3184 -15.2133 -15.2030 -15.0811 -15.0788 -15.0155 -15.0062
   -14.8868 -14.8829   0.3645   0.4573   5.9391   6.2970  10.2660  10.7284
    19.5524  19.6294

     occupation numbers 
     1.0000   1.0000   1.0000   1.0000   1.0000   1.0000   1.0000   1.0000
     1.0000   1.0000   1.0000   1.0000   1.0000   1.0000   0.0006   0.0000
     0.0000   0.0000

          k = 0.2176 0.1088 0.0000 (  1403 PWs)   bands (ev):

   -15.2992 -15.2899 -15.2739 -15.2087 -15.1870 -15.0141 -14.9701 -14.9423
   -14.9383 -14.9103  -3.3645   6.2885   7.9038   8.8482  11.9310  12.3454
    13.8708  14.5778

     occupation numbers 
     1.0000   1.0000   1.0000   1.0000   1.0000   1.0000   1.0000   1.0000
     1.0000   1.0000   1.0000   1.0000   1.0000   1.0003   0.0000   0.0000
     0.0000   0.0000

          k = 0.2720 0.1632-0.0544 (  1400 PWs)   bands (ev):

   -15.3078 -15.2988 -15.2640 -15.1971 -15.1712 -15.0279 -14.9811 -14.9552
   -14.9231 -14.9025  -2.9799   5.0203   7.2796   8.5556  12.0038  12.6379
    14.3579  14.8415

     occupation numbers 
     1.0000   1.0000   1.0000   1.0000   1.0000   1.0000   1.0000   1.0000
     1.0000   1.0000   1.0000   1.0000   1.0000   1.0000   0.0000   0.0000
     0.0000   0.0000

          k = 0.3264 0.2176-0.1088 (  1408 PWs)   bands (ev):

   -15.3150 -15.3061 -15.2517 -15.1862 -15.1599 -15.0355 -14.9900 -14.9723
   -14.9106 -14.8960  -2.4666   3.6959   6.9129   8.1951  11.8024  13.0373
    14.4755  15.3612

     occupation numbers 
     1.0000   1.0000   1.0000   1.0000   1.0000   1.0000   1.0000   1.0000
     1.0000   1.0000   1.0000   1.0000   1.0000   1.0000   0.0000   0.0000
     0.0000   0.0000

          k = 0.3807 0.2720-0.1632 (  1415 PWs)   bands (ev):

   -15.3204 -15.3103 -15.2407 -15.1765 -15.1558 -15.0351 -14.9971 -14.9894
   -14.9023 -14.8913  -1.8812   2.5274   6.7060   7.8982  11.6233  13.1144
    14.4367  16.3462

     occupation numbers 
     1.0000   1.0000   1.0000   1.0000   1.0000   1.0000   1.0000   1.0000
     1.0000   1.0000   1.0000   1.0000   1.0000   1.0000   0.0000   0.0000
     0.0000   0.0000

          k =-0.2720-0.3807 0.4895 (  1417 PWs)   bands (ev):

   -15.3233 -15.3121 -15.2342 -15.1683 -15.1581 -15.0281 -15.0087 -14.9968
   -14.8985 -14.8885  -1.4009   1.7464   6.6144   7.7324  11.5273  13.0757
    14.3848  17.3547

     occupation numbers 
     1.0000   1.0000   1.0000   1.0000   1.0000   1.0000   1.0000   1.0000
     1.0000   1.0000   1.0000   1.0000   1.0000   1.0000   0.0000   0.0000
     0.0000   0.0000

          k = 0.3264 0.1088 0.0000 (  1401 PWs)   bands (ev):

   -15.3065 -15.3003 -15.2721 -15.1908 -15.1526 -15.0558 -14.9759 -14.9459
   -14.9214 -14.9054  -2.8441   4.9826   7.1261   7.8622  11.3302  12.8929
    14.7214  15.3819

     occupation numbers 
     1.0000   1.0000   1.0000   1.0000   1.0000   1.0000   1.0000   1.0000
     1.0000   1.0000   1.0000   1.0000   1.0000   1.0000   0.0000   0.0000
     0.0000   0.0000

          k = 0.3807 0.1632-0.0544 (  1402 PWs)   bands (ev):

   -15.3163 -15.3078 -15.2567 -15.1781 -15.1382 -15.0687 -14.9892 -14.9625
   -14.9087 -14.8956  -2.3710   3.9051   6.5237   7.5677  11.6606  13.0829
    14.4423  15.8277

     occupation numbers 
     1.0000   1.0000   1.0000   1.0000   1.0000   1.0000   1.0000   1.0000
     1.0000   1.0000   1.0000   1.0000   1.0000   1.0000   0.0000   0.0000
     0.0000   0.0000

          k = 0.4351 0.2176-0.1088 (  1411 PWs)   bands (ev):

   -15.3258 -15.3126 -15.2397 -15.1659 -15.1316 -15.0720 -15.0032 -14.9815
   -14.8998 -14.8856  -1.7987   2.8114   6.1094   7.3085  11.7491  13.6177
    14.4922  15.8975

     occupation numbers 
     1.0000   1.0000   1.0000   1.0000   1.0000   1.0000   1.0000   1.0000
     1.0000   1.0000   1.0000   1.0000   1.0000   1.0000   0.0000   0.0000
     0.0000   0.0000

          k =-0.2176-0.4351 0.5439 (  1422 PWs)   bands (ev):

   -15.3320 -15.3157 -15.2258 -15.1551 -15.1340 -15.0653 -15.0183 -14.9958
   -14.8943 -14.8788  -1.2461   1.9342   5.8224   7.2059  11.7798  13.5528
    15.4109  16.0204

     occupation numbers 
     1.0000   1.0000   1.0000   1.0000   1.0000   1.0000   1.0000   1.0000
     1.0000   1.0000   1.0000   1.0000   1.0000   1.0000   0.0000   0.0000
     0.0000   0.0000

          k =-0.1632-0.3807 0.4895 (  1415 PWs)   bands (ev):

   -15.3335 -15.3177 -15.2189 -15.1525 -15.1376 -15.0544 -15.0285 -15.0026
   -14.8912 -14.8773  -1.0516   1.6610   5.6540   7.2861  11.8892  13.4110
    15.4882  17.2079

     occupation numbers 
     1.0000   1.0000   1.0000   1.0000   1.0000   1.0000   1.0000   1.0000
     1.0000   1.0000   1.0000   1.0000   1.0000   1.0000   0.0000   0.0000
     0.0000   0.0000

          k =-0.1088-0.3264 0.4351 (  1415 PWs)   bands (ev):

   -15.3302 -15.3184 -15.2209 -15.1641 -15.1358 -15.0534 -15.0174 -15.0033
   -14.8907 -14.8817  -1.4282   2.2107   5.6333   7.5287  12.0853  13.3523
    15.2716  16.3852

     occupation numbers 
     1.0000   1.0000   1.0000   1.0000   1.0000   1.0000   1.0000   1.0000
     1.0000   1.0000   1.0000   1.0000   1.0000   1.0000   0.0000   0.0000
     0.0000   0.0000

          k =-0.0544-0.2720 0.3807 (  1409 PWs)   bands (ev):

   -15.3224 -15.3171 -15.2322 -15.1769 -15.1407 -15.0522 -14.9998 -14.9933
   -14.8949 -14.8897  -2.0107   3.1776   5.8196   7.8884  12.3270  13.2596
    14.7323  15.5945

     occupation numbers 
     1.0000   1.0000   1.0000   1.0000   1.0000   1.0000   1.0000   1.0000
     1.0000   1.0000   1.0000   1.0000   1.0000   1.0000   0.0000   0.0000
     0.0000   0.0000

          k = 0.0000-0.2176 0.3264 (  1405 PWs)   bands (ev):

   -15.3140 -15.3105 -15.2488 -15.1876 -15.1540 -15.0429 -14.9917 -14.9703
   -14.9087 -14.8956  -2.5537   4.1944   6.3290   8.2842  12.5081  12.7603
    14.5437  14.9952

     occupation numbers 
     1.0000   1.0000   1.0000   1.0000   1.0000   1.0000   1.0000   1.0000
     1.0000   1.0000   1.0000   1.0000   1.0000   1.0000   0.0000   0.0000
     0.0000   0.0000

          k = 0.4351 0.1088 0.0000 (  1410 PWs)   bands (ev):

   -15.3133 -15.3105 -15.2640 -15.1649 -15.1138 -15.1001 -14.9984 -14.9508
   -14.9045 -14.8992  -2.1265   3.6557   6.5223   7.0177  10.8887  12.2467
    15.7110  16.9545

     occupation numbers 
     1.0000   1.0000   1.0000   1.0000   1.0000   1.0000   1.0000   1.0000
     1.0000   1.0000   1.0000   1.0000   1.0000   1.0000   0.0000   0.0000
     0.0000   0.0000

          k = 0.4895 0.1632-0.0544 (  1411 PWs)   bands (ev):

   -15.3246 -15.3158 -15.2432 -15.1505 -15.1123 -15.0999 -15.0144 -14.9732
   -14.8954 -14.8863  -1.5798   2.7730   5.9254   6.7679  11.2511  12.6194
    15.3719  17.3171

     occupation numbers 
     1.0000   1.0000   1.0000   1.0000   1.0000   1.0000   1.0000   1.0000
     1.0000   1.0000   1.0000   1.0000   1.0000   1.0000   0.0000   0.0000
     0.0000   0.0000

          k =-0.1632-0.4895 0.5983 (  1413 PWs)   bands (ev):

   -15.3345 -15.3190 -15.2230 -15.1372 -15.1141 -15.0945 -15.0314 -14.9942
   -14.8899 -14.8752  -0.9932   1.9534   5.3968   6.6889  11.3826  13.7903
    15.0238  17.2039

     occupation numbers 
     1.0000   1.0000   1.0000   1.0000   1.0000   1.0000   1.0000   1.0000
     1.0000   1.0000   1.0000   1.0000   1.0000   1.0000   0.0000   0.0000
     0.0000   0.0000

          k =-0.1088-0.4351 0.5439 (  1414 PWs)   bands (ev):

   -15.3397 -15.3213 -15.2102 -15.1293 -15.1109 -15.0916 -15.0464 -15.0063
   -14.8864 -14.8697  -0.6349   1.5100   5.0333   6.7982  11.5417  14.7072
    15.3723  16.8347

     occupation numbers 
     1.0000   1.0000   1.0000   1.0000   1.0000   1.0000   1.0000   1.0000
     1.0000   1.0000   1.0000   1.0000   1.0000   1.0000   0.0000   0.0000
     0.0000   0.0000

          k =-0.0544-0.3807 0.4895 (  1412 PWs)   bands (ev):

   -15.3390 -15.3224 -15.2074 -15.1405 -15.1138 -15.0770 -15.0475 -15.0088
   -14.8852 -14.8712  -0.8871   1.8246   4.9115   7.0688  11.8092  14.5167
    15.8618  16.8824

     occupation numbers 
     1.0000   1.0000   1.0000   1.0000   1.0000   1.0000   1.0000   1.0000
     1.0000   1.0000   1.0000   1.0000   1.0000   1.0000   0.0000   0.0000
     0.0000   0.0000

          k = 0.0000-0.3264 0.4351 (  1409 PWs)   bands (ev):

   -15.3325 -15.3215 -15.2149 -15.1617 -15.1232 -15.0663 -15.0239 -15.0053
   -14.8866 -14.8797  -1.4521   2.5263   5.1345   7.4585  12.1487  14.1266
    14.8680  16.4565

     occupation numbers 
     1.0000   1.0000   1.0000   1.0000   1.0000   1.0000   1.0000   1.0000
     1.0000   1.0000   1.0000   1.0000   1.0000   1.0000   0.0000   0.0000
     0.0000   0.0000

          k = 0.5439 0.1088 0.0000 (  1409 PWs)   bands (ev):

   -15.3192 -15.3184 -15.2463 -15.1439 -15.1332 -15.0733 -15.0286 -14.9692
   -14.8910 -14.8901  -1.2249   2.3262   6.1313   6.4106  10.6602  11.4811
    17.0471  18.4786

     occupation numbers 
     1.0000   1.0000   1.0000   1.0000   1.0000   1.0000   1.0000   1.0000
     1.0000   1.0000   1.0000   1.0000   1.0000   1.0000   0.0000   0.0000
     0.0000   0.0000

          k =-0.1088-0.5439 0.6527 (  1408 PWs)   bands (ev):

   -15.3304 -15.3214 -15.2221 -15.1507 -15.1175 -15.0643 -15.0464 -14.9942
   -14.8862 -14.8779  -0.6315   1.6161   5.5314   6.2853  10.9974  12.1506
    16.6869  18.5853

     occupation numbers 
     1.0000   1.0000   1.0000   1.0000   1.0000   1.0000   1.0000   1.0000
     1.0000   1.0000   1.0000   1.0000   1.0000   1.0000   0.0000   0.0000
     0.0000   0.0000

          k =-0.0544-0.4895 0.5983 (  1412 PWs)   bands (ev):

   -15.3393 -15.3231 -15.2054 -15.1388 -15.1044 -15.0731 -15.0630 -15.0106
   -14.8836 -14.8691  -0.1587   1.1232   4.9677   6.3944  11.1663  13.5628
    16.3413  17.6311

     occupation numbers 
     1.0000   1.0000   1.0000   1.0000   1.0000   1.0000   1.0000   1.0000
     1.0000   1.0000   1.0000   1.0000   1.0000   1.0000   0.0000   0.0000
     0.0000   0.0000

          k = 0.0000-0.4351 0.5439 (  1417 PWs)   bands (ev):

   -15.3424 -15.3236 -15.2024 -15.1117 -15.1089 -15.0928 -15.0670 -15.0125
   -14.8832 -14.8665  -0.3414   1.3261   4.7055   6.6680  11.4385  15.2633
    15.9339  16.2093

     occupation numbers 
     1.0000   1.0000   1.0000   1.0000   1.0000   1.0000   1.0000   1.0000
     1.0000   1.0000   1.0000   1.0000   1.0000   1.0000   0.0000   0.0000
     0.0000   0.0000

          k =-0.0544-0.5983 0.7071 (  1406 PWs)   bands (ev):

   -15.3228 -15.3226 -15.2193 -15.1845 -15.0983 -15.0627 -15.0339 -14.9982
   -14.8838 -14.8837  -0.1600   1.0377   5.9737   6.0633  10.6726  10.9438
    18.4309  19.3728

     occupation numbers 
     1.0000   1.0000   1.0000   1.0000   1.0000   1.0000   1.0000   1.0000
     1.0000   1.0000   1.0000   1.0000   1.0000   1.0000   0.0000   0.0000
     0.0000   0.0000

          k = 0.0000-0.5439 0.6527 (  1410 PWs)   bands (ev):

   -15.3325 -15.3234 -15.2022 -15.1768 -15.0854 -15.0783 -15.0384 -15.0150
   -14.8827 -14.8747   0.3073   0.6048   5.3927   6.1284  10.9135  11.9832
    18.0422  18.0707

     occupation numbers 
     1.0000   1.0000   1.0000   1.0000   1.0000   1.0000   1.0000   1.0000
     1.0000   1.0000   1.0000   1.0000   1.0000   1.0000   0.0000   0.0000
     0.0000   0.0000

          k = 0.4351 0.2176 0.0000 (  1406 PWs)   bands (ev):

   -15.3212 -15.3201 -15.2370 -15.1658 -15.1218 -15.0830 -15.0027 -14.9836
   -14.8926 -14.8899  -1.8653   3.1504   5.7758   7.2323  12.3313  13.1122
    14.0596  16.7419

     occupation numbers 
     1.0000   1.0000   1.0000   1.0000   1.0000   1.0000   1.0000   1.0000
     1.0000   1.0000   1.0000   1.0000   1.0000   1.0000   0.0000   0.0000
     0.0000   0.0000

          k =-0.2176-0.4351 0.6527 (  1410 PWs)   bands (ev):

   -15.3318 -15.3228 -15.2177 -15.1526 -15.1124 -15.0886 -15.0211 -15.0018
   -14.8866 -14.8790  -1.2808   2.3164   5.3475   6.8767  12.6633  13.4125
    14.2301  17.1656

     occupation numbers 
     1.0000   1.0000   1.0000   1.0000   1.0000   1.0000   1.0000   1.0000
     1.0000   1.0000   1.0000   1.0000   1.0000   1.0000   0.0000   0.0000
     0.0000   0.0000

          k =-0.1632-0.3807 0.5983 (  1413 PWs)   bands (ev):

   -15.3376 -15.3239 -15.2061 -15.1410 -15.1120 -15.0856 -15.0397 -15.0100
   -14.8846 -14.8720  -0.7824   1.6596   5.1692   6.6641  12.7550  13.2043
    15.5847  16.9501

     occupation numbers 
     1.0000   1.0000   1.0000   1.0000   1.0000   1.0000   1.0000   1.0000
     1.0000   1.0000   1.0000   1.0000   1.0000   1.0000   0.0000   0.0000
     0.0000   0.0000

          k =-0.1632-0.4895 0.7071 (  1418 PWs)   bands (ev):

   -15.3288 -15.3264 -15.2194 -15.1360 -15.1234 -15.0864 -15.0322 -14.9967
   -14.8826 -14.8809  -1.0144   2.0943   5.4661   6.3242  12.0840  12.6800
    14.9785  18.2868

     occupation numbers 
     1.0000   1.0000   1.0000   1.0000   1.0000   1.0000   1.0000   1.0000
     1.0000   1.0000   1.0000   1.0000   1.0000   1.0000   0.0000   0.0000
     0.0000   0.0000

          k =-0.1088-0.4351 0.6527 (  1413 PWs)   bands (ev):

   -15.3372 -15.3286 -15.1978 -15.1283 -15.1200 -15.0802 -15.0521 -15.0158
   -14.8795 -14.8714  -0.4449   1.4607   5.1040   6.0790  12.4375  13.7937
    14.5928  17.3904

     occupation numbers 
     1.0000   1.0000   1.0000   1.0000   1.0000   1.0000   1.0000   1.0000
     1.0000   1.0000   1.0000   1.0000   1.0000   1.0000   0.0000   0.0000
     0.0000   0.0000

          k =-0.0544-0.3807 0.5983 (  1413 PWs)   bands (ev):

   -15.3407 -15.3290 -15.1904 -15.1233 -15.1106 -15.0866 -15.0622 -15.0212
   -14.8787 -14.8679  -0.2591   1.2678   4.8856   6.1361  12.6726  14.2846
    15.4260  15.7169

     occupation numbers 
     1.0000   1.0000   1.0000   1.0000   1.0000   1.0000   1.0000   1.0000
     1.0000   1.0000   1.0000   1.0000   1.0000   1.0000   0.0000   0.0000
     0.0000   0.0000

          k = 0.0000-0.3264 0.5439 (  1412 PWs)   bands (ev):

   -15.3381 -15.3277 -15.1987 -15.1346 -15.1040 -15.0943 -15.0478 -15.0149
   -14.8804 -14.8713  -0.7009   1.7352   4.9332   6.4331  13.0015  13.8969
    14.3618  17.1654

     occupation numbers 
     1.0000   1.0000   1.0000   1.0000   1.0000   1.0000   1.0000   1.0000
     1.0000   1.0000   1.0000   1.0000   1.0000   1.0000   0.0000   0.0000
     0.0000   0.0000

          k =-0.0544-0.4895 0.7071 (  1408 PWs)   bands (ev):

   -15.3321 -15.3310 -15.1938 -15.1611 -15.1018 -15.0663 -15.0515 -15.0203
   -14.8765 -14.8754  -0.0358   1.0198   5.4345   5.7138  12.0518  12.2518
    16.2915  17.7079

     occupation numbers 
     1.0000   1.0000   1.0000   1.0000   1.0000   1.0000   1.0000   1.0000
     1.0000   1.0000   1.0000   1.0000   1.0000   1.0000   0.0000   0.0000
     0.0000   0.0000

          k = 0.0000-0.4351 0.6527 (  1417 PWs)   bands (ev):

   -15.3388 -15.3311 -15.1812 -15.1485 -15.0953 -15.0801 -15.0592 -15.0302
   -14.8761 -14.8691   0.2368   0.7839   5.0510   5.7617  12.3483  13.6711
    15.8934  16.0025

     occupation numbers 
     1.0000   1.0000   1.0000   1.0000   1.0000   1.0000   1.0000   1.0000
     1.0000   1.0000   1.0000   1.0000   1.0000   1.0000   0.0000   0.0000
     0.0000   0.0000

          k =-0.0544-0.3807 0.7071 (  1423 PWs)   bands (ev):

   -15.3386 -15.3344 -15.1736 -15.1410 -15.1056 -15.0761 -15.0630 -15.0349
   -14.8734 -14.8694   0.1159   0.9380   5.0700   5.5802  13.8472  13.9929
    14.2069  15.6276

     occupation numbers 
     1.0000   1.0000   1.0000   1.0000   1.0000   1.0000   1.0000   1.0000
     1.0000   1.0000   1.0000   1.0000   1.0000   1.0000   0.0000   0.0000
     0.0000   0.0000

     the Fermi energy is     9.7564 ev

!    total energy              =    -426.37224442 Ry
     estimated scf accuracy    <          1.5E-10 Ry
     smearing contrib. (-TS)   =       0.00011132 Ry
     internal energy E=F+TS    =    -426.37235574 Ry

     The total energy is F=E-TS. E is the sum of the following terms:
     one-electron contribution =    -267.67322655 Ry
     hartree contribution      =     160.80639220 Ry
     xc contribution           =    -115.39938188 Ry
     ewald contribution        =    -204.10613951 Ry

     convergence has been achieved in   8 iterations

     Forces acting on atoms (cartesian axes, Ry/au):

     atom    1 type  1   force =     0.00000000    0.00000000    0.00000000
     atom    2 type  1   force =     0.00000000    0.00000000    0.00000000
     The non-local contrib.  to forces
     atom    1 type  1   force =     0.00000000    0.00000000   -0.00000000
     atom    2 type  1   force =     0.00000000   -0.00000000   -0.00000000
     The ionic contribution  to forces
     atom    1 type  1   force =    -0.00000000   -0.00000000   -0.00000000
     atom    2 type  1   force =     0.00000000    0.00000000    0.00000000
     The local contribution  to forces
     atom    1 type  1   force =    -0.00000000   -0.00000000   -0.00000000
     atom    2 type  1   force =    -0.00000000   -0.00000000   -0.00000000
     The core correction contribution to forces
     atom    1 type  1   force =    -0.00000000   -0.00000000   -0.00000000
     atom    2 type  1   force =    -0.00000000   -0.00000000   -0.00000000
     The Hubbard contrib.    to forces
     atom    1 type  1   force =     0.00000000    0.00000000    0.00000000
     atom    2 type  1   force =     0.00000000    0.00000000    0.00000000
     The SCF correction term to forces
     atom    1 type  1   force =    -0.00000000    0.00000000    0.00000000
     atom    2 type  1   force =    -0.00000000   -0.00000000   -0.00000000

     Total force =     0.000000     Total SCF correction =     0.000000


     Computing stress (Cartesian axis) and pressure

          total   stress  (Ry/bohr**3)                   (kbar)     P=       91.89
   0.00062464  -0.00000000  -0.00000000           91.89       -0.00       -0.00
  -0.00000000   0.00062464  -0.00000000           -0.00       91.89       -0.00
  -0.00000000  -0.00000000   0.00062464           -0.00       -0.00       91.89

     kinetic stress (kbar)  11160.31      0.00      0.00
                                0.00  11160.31      0.00
                                0.00      0.00  11160.31

     local   stress (kbar)   4023.61     -0.00      0.00
                               -0.00   4023.61      0.00
                                0.00      0.00   4023.61

     nonloc. stress (kbar)   3359.64      0.00      0.00
                                0.00   3359.64      0.00
                                0.00      0.00   3359.64

     hartree stress (kbar)  28483.12      0.00      0.00
                                0.00  28483.12      0.00
                                0.00      0.00  28483.12

     exc-cor stress (kbar)  21651.36      0.00      0.00
                                0.00  21651.36      0.00
                                0.00      0.00  21651.36

     corecor stress (kbar) -32433.49     -0.00      0.00
                               -0.00 -32433.49      0.00
                                0.00      0.00 -32433.49

     ewald   stress (kbar) -36152.67     -0.00     -0.00
                               -0.00 -36152.67     -0.00
                               -0.00     -0.00 -36152.67

     hubbard stress (kbar)      0.00      0.00      0.00
                                0.00      0.00      0.00
                                0.00      0.00      0.00

     DFT-D   stress (kbar)      0.00      0.00      0.00
                                0.00      0.00      0.00
                                0.00      0.00      0.00

     XDM     stress (kbar)      0.00      0.00      0.00
                                0.00      0.00      0.00
                                0.00      0.00      0.00

     dft-nl  stress (kbar)      0.00      0.00      0.00
                                0.00      0.00      0.00
                                0.00      0.00      0.00

     TS-vdW  stress (kbar)      0.00      0.00      0.00
                                0.00      0.00      0.00
                                0.00      0.00      0.00

     MDB     stress (kbar)      0.00      0.00      0.00
                                0.00      0.00      0.00
                                0.00      0.00      0.00

     3D-RISM stress (kbar)      0.00      0.00      0.00
                                0.00      0.00      0.00
                                0.00      0.00      0.00


     Writing all to output data dir ./out/aiida.save/ :
     XML data file, charge density, pseudopotentials, collected wavefunctions

     init_run     :      5.95s CPU      3.16s WALL (       1 calls)
     electrons    :    171.69s CPU     86.89s WALL (       1 calls)
     forces       :      1.44s CPU      0.69s WALL (       1 calls)
     stress       :      6.37s CPU      3.51s WALL (       1 calls)

     Called by init_run:
     wfcinit      :      5.48s CPU      2.69s WALL (       1 calls)
     wfcinit:atom :      0.10s CPU      0.05s WALL (      84 calls)
     wfcinit:wfcr :      4.83s CPU      2.36s WALL (      84 calls)
     potinit      :      0.06s CPU      0.07s WALL (       1 calls)
     hinit0       :      0.24s CPU      0.24s WALL (       1 calls)

     Called by electrons:
     c_bands      :    141.51s CPU     70.00s WALL (       9 calls)
     sum_band     :     28.04s CPU     14.76s WALL (       9 calls)
     v_of_rho     :      0.58s CPU      0.62s WALL (       9 calls)
     v_h          :      0.03s CPU      0.04s WALL (       9 calls)
     v_xc         :      0.78s CPU      0.74s WALL (      11 calls)
     newd         :      1.62s CPU      1.60s WALL (       9 calls)
     mix_rho      :      0.05s CPU      0.05s WALL (       9 calls)

     Called by c_bands:
     init_us_2    :      4.04s CPU      1.72s WALL (    1764 calls)
     cegterg      :    134.48s CPU     66.57s WALL (     756 calls)

     Called by sum_band:
     sum_band:wei :      0.08s CPU      0.04s WALL (       9 calls)
     sum_band:loo :     23.99s CPU     12.38s WALL (       9 calls)
     sum_band:buf :      0.17s CPU      0.06s WALL (     756 calls)
     sum_band:ini :      1.70s CPU      0.75s WALL (     756 calls)
     sum_band:cal :      1.56s CPU      0.82s WALL (     756 calls)
     sum_band:bec :      0.06s CPU      0.02s WALL (     756 calls)
     addusdens    :      3.87s CPU      2.25s WALL (       9 calls)
                                        0.00s GPU  (       9 calls)
     addusd:skk   :      0.01s CPU      0.01s WALL (       9 calls)
                                        0.00s GPU  (       9 calls)

     Called by *egterg:
     cdiaghg      :      5.24s CPU      2.08s WALL (    2359 calls)
     cegterg:over :      4.14s CPU      1.17s WALL (    1687 calls)
     cegterg:upda :      2.49s CPU      0.95s WALL (    1687 calls)
     cegterg:last :      4.09s CPU      1.23s WALL (    1427 calls)
     h_psi        :    116.20s CPU     61.15s WALL (    2527 calls)
     s_psi        :      2.98s CPU      0.95s WALL (    2527 calls)
     g_psi        :      0.78s CPU      0.24s WALL (    1687 calls)

     Called by h_psi:
     h_psi:calbec :      4.35s CPU      2.96s WALL (    2527 calls)
     vloc_psi     :    108.58s CPU     57.09s WALL (    2527 calls)
                                        0.00s GPU  (    2527 calls)
     add_vuspsi   :      2.82s CPU      0.92s WALL (    2527 calls)

     General routines
     calbec       :      7.72s CPU      4.63s WALL (    4711 calls)
     fft          :      0.44s CPU      0.41s WALL (     141 calls)
     ffts         :      0.02s CPU      0.02s WALL (      18 calls)
     fftw         :    115.17s CPU     61.05s WALL (   83692 calls)
     interpolate  :      0.03s CPU      0.03s WALL (       9 calls)

     Parallel routines

     PWSCF        :   3m 5.77s CPU   1m34.53s WALL


   This run was terminated on:   0: 3:13  25Dec2025            

=------------------------------------------------------------------------------=
   JOB DONE.
=------------------------------------------------------------------------------=
