
     Program PWSCF v.7.4.1 starts on 25Dec2025 at  0:49:53 

     This program is part of the open-source Quantum ESPRESSO suite
     for quantum simulation of materials; please cite
         "P. Giannozzi et al., J. Phys.:Condens. Matter 21 395502 (2009);
         "P. Giannozzi et al., J. Phys.:Condens. Matter 29 465901 (2017);
         "P. Giannozzi et al., J. Chem. Phys. 152 154105 (2020);
          URL http://www.quantum-espresso.org", 
     in publications or presentations arising from this work. More details at
     http://www.quantum-espresso.org/quote

     Parallel version (MPI), running on     1 processors

     MPI processes distributed on     1 nodes
     675 MiB available memory on the printing compute node when the environment starts

     Waiting for input...
     Reading input from standard input
Warning: card &CELL ignored

     Current dimensions of program PWSCF are:
     Max number of different atomic species (ntypx) = 10
     Max number of k-points (npk) =  40000
     Max angular momentum in pseudopotentials (lmaxx) =  4
     Message from routine setup:
     using ibrav=0 with symmetry is DISCOURAGED, use correct ibrav instead

     Subspace diagonalization in iterative solution of the eigenvalue problem:
     a serial algorithm will be used


     G-vector sticks info
     --------------------
     sticks:   dense  smooth     PW     G-vecs:    dense   smooth      PW
     Sum        1393     685    211                34015    12039    2085

     Using Slab Decomposition



     bravais-lattice index     =            0
     lattice parameter (alat)  =       7.4695  a.u.
     unit-cell volume          =     294.6907 (a.u.)^3
     number of atoms/cell      =            2
     number of atomic types    =            1
     number of electrons       =        28.00
     number of Kohn-Sham states=           18
     kinetic-energy cutoff     =      45.0000  Ry
     charge density cutoff     =     360.0000  Ry
     scf convergence threshold =      4.0E-10
     mixing beta               =       0.4000
     number of iterations used =            8  plain     mixing
     Exchange-correlation= SLA  PW   PSX  PSC
                           (   1   4  10   8   0   0   0)

     celldm(1)=   7.469539  celldm(2)=   0.000000  celldm(3)=   0.000000
     celldm(4)=   0.000000  celldm(5)=   0.000000  celldm(6)=   0.000000

     crystal axes: (cart. coord. in units of alat)
               a(1) = (   0.000000   0.707107   0.707107 )  
               a(2) = (   0.707107   0.000000   0.707107 )  
               a(3) = (   0.707107   0.707107   0.000000 )  

     reciprocal axes: (cart. coord. in units 2 pi/alat)
               b(1) = ( -0.707107  0.707107  0.707107 )  
               b(2) = (  0.707107 -0.707107  0.707107 )  
               b(3) = (  0.707107  0.707107 -0.707107 )  


     PseudoPot. # 1 for Ge read from file:
     ./pseudo/ge_pbesol_v1.4.uspp.F.UPF
     MD5 check sum: 7bed0412183f5e553a4d27ec7023354d
     Pseudo is Ultrasoft + core correction, Zval = 14.0
     Generated by new atomic code, or converted to UPF format
     Using radial grid of  873 points,  6 beta functions with: 
                l(1) =   0
                l(2) =   0
                l(3) =   1
                l(4) =   1
                l(5) =   2
                l(6) =   2
     Q(r) pseudized with  8 coefficients,  rinner =    1.400   1.400   1.400
                                                       1.400   1.400

     atomic species   valence    mass     pseudopotential
     Ge               14.00    72.64000     Ge( 1.00)

     48 Sym. Ops., with inversion, found (24 have fractional translation)


                                    s                        frac. trans.

      isym =  1     identity                                     

 cryst.   s( 1) = (     1          0          0      )
                  (     0          1          0      )
                  (     0          0          1      )

 cart.    s( 1) = (  1.0000000  0.0000000  0.0000000 )
                  (  0.0000000  1.0000000  0.0000000 )
                  (  0.0000000  0.0000000  1.0000000 )


      isym =  2     180 deg rotation - cart. axis [0,0,1]        

 cryst.   s( 2) = (     0          1         -1      )
                  (     1          0         -1      )
                  (     0          0         -1      )

 cart.    s( 2) = ( -1.0000000  0.0000000  0.0000000 )
                  (  0.0000000 -1.0000000  0.0000000 )
                  (  0.0000000  0.0000000  1.0000000 )


      isym =  3     180 deg rotation - cart. axis [0,1,0]        

 cryst.   s( 3) = (     0         -1          1      )
                  (     0         -1          0      )
                  (     1         -1          0      )

 cart.    s( 3) = ( -1.0000000  0.0000000  0.0000000 )
                  (  0.0000000  1.0000000  0.0000000 )
                  (  0.0000000  0.0000000 -1.0000000 )


      isym =  4     180 deg rotation - cart. axis [1,0,0]        

 cryst.   s( 4) = (    -1          0          0      )
                  (    -1          0          1      )
                  (    -1          1          0      )

 cart.    s( 4) = (  1.0000000  0.0000000  0.0000000 )
                  (  0.0000000 -1.0000000  0.0000000 )
                  (  0.0000000  0.0000000 -1.0000000 )


      isym =  5     180 deg rotation - cart. axis [1,1,0]        

 cryst.   s( 5) = (    -1          0          1      )    f =( -0.2500000 )
                  (     0         -1          1      )       ( -0.2500000 )
                  (     0          0          1      )       ( -0.2500000 )

 cart.    s( 5) = (  0.0000000  1.0000000  0.0000000 )    f =( -0.3535534 )
                  (  1.0000000  0.0000000  0.0000000 )       ( -0.3535534 )
                  (  0.0000000  0.0000000 -1.0000000 )       ( -0.3535534 )


      isym =  6     180 deg rotation - cart. axis [1,-1,0]       

 cryst.   s( 6) = (     0         -1          0      )    f =( -0.2500000 )
                  (    -1          0          0      )       ( -0.2500000 )
                  (     0          0         -1      )       ( -0.2500000 )

 cart.    s( 6) = (  0.0000000 -1.0000000  0.0000000 )    f =( -0.3535534 )
                  ( -1.0000000  0.0000000  0.0000000 )       ( -0.3535534 )
                  (  0.0000000  0.0000000 -1.0000000 )       ( -0.3535534 )


      isym =  7      90 deg rotation - cart. axis [0,0,-1]       

 cryst.   s( 7) = (     0          1          0      )    f =( -0.2500000 )
                  (     0          1         -1      )       ( -0.2500000 )
                  (    -1          1          0      )       ( -0.2500000 )

 cart.    s( 7) = (  0.0000000  1.0000000  0.0000000 )    f =( -0.3535534 )
                  ( -1.0000000  0.0000000  0.0000000 )       ( -0.3535534 )
                  (  0.0000000  0.0000000  1.0000000 )       ( -0.3535534 )


      isym =  8      90 deg rotation - cart. axis [0,0,1]        

 cryst.   s( 8) = (     1          0         -1      )    f =( -0.2500000 )
                  (     1          0          0      )       ( -0.2500000 )
                  (     1         -1          0      )       ( -0.2500000 )

 cart.    s( 8) = (  0.0000000 -1.0000000  0.0000000 )    f =( -0.3535534 )
                  (  1.0000000  0.0000000  0.0000000 )       ( -0.3535534 )
                  (  0.0000000  0.0000000  1.0000000 )       ( -0.3535534 )


      isym =  9     180 deg rotation - cart. axis [1,0,1]        

 cryst.   s( 9) = (    -1          1          0      )    f =( -0.2500000 )
                  (     0          1          0      )       ( -0.2500000 )
                  (     0          1         -1      )       ( -0.2500000 )

 cart.    s( 9) = (  0.0000000  0.0000000  1.0000000 )    f =( -0.3535534 )
                  (  0.0000000 -1.0000000  0.0000000 )       ( -0.3535534 )
                  (  1.0000000  0.0000000  0.0000000 )       ( -0.3535534 )


      isym = 10     180 deg rotation - cart. axis [-1,0,1]       

 cryst.   s(10) = (     0          0         -1      )    f =( -0.2500000 )
                  (     0         -1          0      )       ( -0.2500000 )
                  (    -1          0          0      )       ( -0.2500000 )

 cart.    s(10) = (  0.0000000  0.0000000 -1.0000000 )    f =( -0.3535534 )
                  (  0.0000000 -1.0000000  0.0000000 )       ( -0.3535534 )
                  ( -1.0000000  0.0000000  0.0000000 )       ( -0.3535534 )


      isym = 11      90 deg rotation - cart. axis [0,1,0]        

 cryst.   s(11) = (     0          0          1      )    f =( -0.2500000 )
                  (    -1          0          1      )       ( -0.2500000 )
                  (     0         -1          1      )       ( -0.2500000 )

 cart.    s(11) = (  0.0000000  0.0000000  1.0000000 )    f =( -0.3535534 )
                  (  0.0000000  1.0000000  0.0000000 )       ( -0.3535534 )
                  ( -1.0000000  0.0000000  0.0000000 )       ( -0.3535534 )


      isym = 12      90 deg rotation - cart. axis [0,-1,0]       

 cryst.   s(12) = (     1         -1          0      )    f =( -0.2500000 )
                  (     1          0         -1      )       ( -0.2500000 )
                  (     1          0          0      )       ( -0.2500000 )

 cart.    s(12) = (  0.0000000  0.0000000 -1.0000000 )    f =( -0.3535534 )
                  (  0.0000000  1.0000000  0.0000000 )       ( -0.3535534 )
                  (  1.0000000  0.0000000  0.0000000 )       ( -0.3535534 )


      isym = 13     180 deg rotation - cart. axis [0,1,1]        

 cryst.   s(13) = (     1          0          0      )    f =( -0.2500000 )
                  (     1         -1          0      )       ( -0.2500000 )
                  (     1          0         -1      )       ( -0.2500000 )

 cart.    s(13) = ( -1.0000000  0.0000000  0.0000000 )    f =( -0.3535534 )
                  (  0.0000000  0.0000000  1.0000000 )       ( -0.3535534 )
                  (  0.0000000  1.0000000  0.0000000 )       ( -0.3535534 )


      isym = 14     180 deg rotation - cart. axis [0,1,-1]       

 cryst.   s(14) = (    -1          0          0      )    f =( -0.2500000 )
                  (     0          0         -1      )       ( -0.2500000 )
                  (     0         -1          0      )       ( -0.2500000 )

 cart.    s(14) = ( -1.0000000  0.0000000  0.0000000 )    f =( -0.3535534 )
                  (  0.0000000  0.0000000 -1.0000000 )       ( -0.3535534 )
                  (  0.0000000 -1.0000000  0.0000000 )       ( -0.3535534 )


      isym = 15      90 deg rotation - cart. axis [-1,0,0]       

 cryst.   s(15) = (     0         -1          1      )    f =( -0.2500000 )
                  (     0          0          1      )       ( -0.2500000 )
                  (    -1          0          1      )       ( -0.2500000 )

 cart.    s(15) = (  1.0000000  0.0000000  0.0000000 )    f =( -0.3535534 )
                  (  0.0000000  0.0000000  1.0000000 )       ( -0.3535534 )
                  (  0.0000000 -1.0000000  0.0000000 )       ( -0.3535534 )


      isym = 16      90 deg rotation - cart. axis [1,0,0]        

 cryst.   s(16) = (     0          1         -1      )    f =( -0.2500000 )
                  (    -1          1          0      )       ( -0.2500000 )
                  (     0          1          0      )       ( -0.2500000 )

 cart.    s(16) = (  1.0000000  0.0000000  0.0000000 )    f =( -0.3535534 )
                  (  0.0000000  0.0000000 -1.0000000 )       ( -0.3535534 )
                  (  0.0000000  1.0000000  0.0000000 )       ( -0.3535534 )


      isym = 17     120 deg rotation - cart. axis [-1,-1,-1]     

 cryst.   s(17) = (     0          0          1      )
                  (     1          0          0      )
                  (     0          1          0      )

 cart.    s(17) = (  0.0000000  1.0000000  0.0000000 )
                  (  0.0000000  0.0000000  1.0000000 )
                  (  1.0000000  0.0000000  0.0000000 )


      isym = 18     120 deg rotation - cart. axis [-1,1,1]       

 cryst.   s(18) = (     1         -1          0      )
                  (     0         -1          1      )
                  (     0         -1          0      )

 cart.    s(18) = (  0.0000000 -1.0000000  0.0000000 )
                  (  0.0000000  0.0000000  1.0000000 )
                  ( -1.0000000  0.0000000  0.0000000 )


      isym = 19     120 deg rotation - cart. axis [1,1,-1]       

 cryst.   s(19) = (    -1          1          0      )
                  (    -1          0          0      )
                  (    -1          0          1      )

 cart.    s(19) = (  0.0000000  1.0000000  0.0000000 )
                  (  0.0000000  0.0000000 -1.0000000 )
                  ( -1.0000000  0.0000000  0.0000000 )


      isym = 20     120 deg rotation - cart. axis [1,-1,1]       

 cryst.   s(20) = (     0          0         -1      )
                  (     0          1         -1      )
                  (     1          0         -1      )

 cart.    s(20) = (  0.0000000 -1.0000000  0.0000000 )
                  (  0.0000000  0.0000000 -1.0000000 )
                  (  1.0000000  0.0000000  0.0000000 )


      isym = 21     120 deg rotation - cart. axis [1,1,1]        

 cryst.   s(21) = (     0          1          0      )
                  (     0          0          1      )
                  (     1          0          0      )

 cart.    s(21) = (  0.0000000  0.0000000  1.0000000 )
                  (  1.0000000  0.0000000  0.0000000 )
                  (  0.0000000  1.0000000  0.0000000 )


      isym = 22     120 deg rotation - cart. axis [-1,1,-1]      

 cryst.   s(22) = (    -1          0          1      )
                  (    -1          1          0      )
                  (    -1          0          0      )

 cart.    s(22) = (  0.0000000  0.0000000  1.0000000 )
                  ( -1.0000000  0.0000000  0.0000000 )
                  (  0.0000000 -1.0000000  0.0000000 )


      isym = 23     120 deg rotation - cart. axis [1,-1,-1]      

 cryst.   s(23) = (     1          0         -1      )
                  (     0          0         -1      )
                  (     0          1         -1      )

 cart.    s(23) = (  0.0000000  0.0000000 -1.0000000 )
                  ( -1.0000000  0.0000000  0.0000000 )
                  (  0.0000000  1.0000000  0.0000000 )


      isym = 24     120 deg rotation - cart. axis [-1,-1,1]      

 cryst.   s(24) = (     0         -1          0      )
                  (     1         -1          0      )
                  (     0         -1          1      )

 cart.    s(24) = (  0.0000000  0.0000000 -1.0000000 )
                  (  1.0000000  0.0000000  0.0000000 )
                  (  0.0000000 -1.0000000  0.0000000 )


      isym = 25     inversion                                    

 cryst.   s(25) = (    -1          0          0      )    f =( -0.2500000 )
                  (     0         -1          0      )       ( -0.2500000 )
                  (     0          0         -1      )       ( -0.2500000 )

 cart.    s(25) = ( -1.0000000  0.0000000  0.0000000 )    f =( -0.3535534 )
                  (  0.0000000 -1.0000000  0.0000000 )       ( -0.3535534 )
                  (  0.0000000  0.0000000 -1.0000000 )       ( -0.3535534 )


      isym = 26     inv. 180 deg rotation - cart. axis [0,0,1]   

 cryst.   s(26) = (     0         -1          1      )    f =( -0.2500000 )
                  (    -1          0          1      )       ( -0.2500000 )
                  (     0          0          1      )       ( -0.2500000 )

 cart.    s(26) = (  1.0000000  0.0000000  0.0000000 )    f =( -0.3535534 )
                  (  0.0000000  1.0000000  0.0000000 )       ( -0.3535534 )
                  (  0.0000000  0.0000000 -1.0000000 )       ( -0.3535534 )


      isym = 27     inv. 180 deg rotation - cart. axis [0,1,0]   

 cryst.   s(27) = (     0          1         -1      )    f =( -0.2500000 )
                  (     0          1          0      )       ( -0.2500000 )
                  (    -1          1          0      )       ( -0.2500000 )

 cart.    s(27) = (  1.0000000  0.0000000  0.0000000 )    f =( -0.3535534 )
                  (  0.0000000 -1.0000000  0.0000000 )       ( -0.3535534 )
                  (  0.0000000  0.0000000  1.0000000 )       ( -0.3535534 )


      isym = 28     inv. 180 deg rotation - cart. axis [1,0,0]   

 cryst.   s(28) = (     1          0          0      )    f =( -0.2500000 )
                  (     1          0         -1      )       ( -0.2500000 )
                  (     1         -1          0      )       ( -0.2500000 )

 cart.    s(28) = ( -1.0000000  0.0000000  0.0000000 )    f =( -0.3535534 )
                  (  0.0000000  1.0000000  0.0000000 )       ( -0.3535534 )
                  (  0.0000000  0.0000000  1.0000000 )       ( -0.3535534 )


      isym = 29     inv. 180 deg rotation - cart. axis [1,1,0]   

 cryst.   s(29) = (     1          0         -1      )
                  (     0          1         -1      )
                  (     0          0         -1      )

 cart.    s(29) = (  0.0000000 -1.0000000  0.0000000 )
                  ( -1.0000000  0.0000000  0.0000000 )
                  (  0.0000000  0.0000000  1.0000000 )


      isym = 30     inv. 180 deg rotation - cart. axis [1,-1,0]  

 cryst.   s(30) = (     0          1          0      )
                  (     1          0          0      )
                  (     0          0          1      )

 cart.    s(30) = (  0.0000000  1.0000000  0.0000000 )
                  (  1.0000000  0.0000000  0.0000000 )
                  (  0.0000000  0.0000000  1.0000000 )


      isym = 31     inv.  90 deg rotation - cart. axis [0,0,-1]  

 cryst.   s(31) = (     0         -1          0      )
                  (     0         -1          1      )
                  (     1         -1          0      )

 cart.    s(31) = (  0.0000000 -1.0000000  0.0000000 )
                  (  1.0000000  0.0000000  0.0000000 )
                  (  0.0000000  0.0000000 -1.0000000 )


      isym = 32     inv.  90 deg rotation - cart. axis [0,0,1]   

 cryst.   s(32) = (    -1          0          1      )
                  (    -1          0          0      )
                  (    -1          1          0      )

 cart.    s(32) = (  0.0000000  1.0000000  0.0000000 )
                  ( -1.0000000  0.0000000  0.0000000 )
                  (  0.0000000  0.0000000 -1.0000000 )


      isym = 33     inv. 180 deg rotation - cart. axis [1,0,1]   

 cryst.   s(33) = (     1         -1          0      )
                  (     0         -1          0      )
                  (     0         -1          1      )

 cart.    s(33) = (  0.0000000  0.0000000 -1.0000000 )
                  (  0.0000000  1.0000000  0.0000000 )
                  ( -1.0000000  0.0000000  0.0000000 )


      isym = 34     inv. 180 deg rotation - cart. axis [-1,0,1]  

 cryst.   s(34) = (     0          0          1      )
                  (     0          1          0      )
                  (     1          0          0      )

 cart.    s(34) = (  0.0000000  0.0000000  1.0000000 )
                  (  0.0000000  1.0000000  0.0000000 )
                  (  1.0000000  0.0000000  0.0000000 )


      isym = 35     inv.  90 deg rotation - cart. axis [0,1,0]   

 cryst.   s(35) = (     0          0         -1      )
                  (     1          0         -1      )
                  (     0          1         -1      )

 cart.    s(35) = (  0.0000000  0.0000000 -1.0000000 )
                  (  0.0000000 -1.0000000  0.0000000 )
                  (  1.0000000  0.0000000  0.0000000 )


      isym = 36     inv.  90 deg rotation - cart. axis [0,-1,0]  

 cryst.   s(36) = (    -1          1          0      )
                  (    -1          0          1      )
                  (    -1          0          0      )

 cart.    s(36) = (  0.0000000  0.0000000  1.0000000 )
                  (  0.0000000 -1.0000000  0.0000000 )
                  ( -1.0000000  0.0000000  0.0000000 )


      isym = 37     inv. 180 deg rotation - cart. axis [0,1,1]   

 cryst.   s(37) = (    -1          0          0      )
                  (    -1          1          0      )
                  (    -1          0          1      )

 cart.    s(37) = (  1.0000000  0.0000000  0.0000000 )
                  (  0.0000000  0.0000000 -1.0000000 )
                  (  0.0000000 -1.0000000  0.0000000 )


      isym = 38     inv. 180 deg rotation - cart. axis [0,1,-1]  

 cryst.   s(38) = (     1          0          0      )
                  (     0          0          1      )
                  (     0          1          0      )

 cart.    s(38) = (  1.0000000  0.0000000  0.0000000 )
                  (  0.0000000  0.0000000  1.0000000 )
                  (  0.0000000  1.0000000  0.0000000 )


      isym = 39     inv.  90 deg rotation - cart. axis [-1,0,0]  

 cryst.   s(39) = (     0          1         -1      )
                  (     0          0         -1      )
                  (     1          0         -1      )

 cart.    s(39) = ( -1.0000000  0.0000000  0.0000000 )
                  (  0.0000000  0.0000000 -1.0000000 )
                  (  0.0000000  1.0000000  0.0000000 )


      isym = 40     inv.  90 deg rotation - cart. axis [1,0,0]   

 cryst.   s(40) = (     0         -1          1      )
                  (     1         -1          0      )
                  (     0         -1          0      )

 cart.    s(40) = ( -1.0000000  0.0000000  0.0000000 )
                  (  0.0000000  0.0000000  1.0000000 )
                  (  0.0000000 -1.0000000  0.0000000 )


      isym = 41     inv. 120 deg rotation - cart. axis [-1,-1,-1]

 cryst.   s(41) = (     0          0         -1      )    f =( -0.2500000 )
                  (    -1          0          0      )       ( -0.2500000 )
                  (     0         -1          0      )       ( -0.2500000 )

 cart.    s(41) = (  0.0000000 -1.0000000  0.0000000 )    f =( -0.3535534 )
                  (  0.0000000  0.0000000 -1.0000000 )       ( -0.3535534 )
                  ( -1.0000000  0.0000000  0.0000000 )       ( -0.3535534 )


      isym = 42     inv. 120 deg rotation - cart. axis [-1,1,1]  

 cryst.   s(42) = (    -1          1          0      )    f =( -0.2500000 )
                  (     0          1         -1      )       ( -0.2500000 )
                  (     0          1          0      )       ( -0.2500000 )

 cart.    s(42) = (  0.0000000  1.0000000  0.0000000 )    f =( -0.3535534 )
                  (  0.0000000  0.0000000 -1.0000000 )       ( -0.3535534 )
                  (  1.0000000  0.0000000  0.0000000 )       ( -0.3535534 )


      isym = 43     inv. 120 deg rotation - cart. axis [1,1,-1]  

 cryst.   s(43) = (     1         -1          0      )    f =( -0.2500000 )
                  (     1          0          0      )       ( -0.2500000 )
                  (     1          0         -1      )       ( -0.2500000 )

 cart.    s(43) = (  0.0000000 -1.0000000  0.0000000 )    f =( -0.3535534 )
                  (  0.0000000  0.0000000  1.0000000 )       ( -0.3535534 )
                  (  1.0000000  0.0000000  0.0000000 )       ( -0.3535534 )


      isym = 44     inv. 120 deg rotation - cart. axis [1,-1,1]  

 cryst.   s(44) = (     0          0          1      )    f =( -0.2500000 )
                  (     0         -1          1      )       ( -0.2500000 )
                  (    -1          0          1      )       ( -0.2500000 )

 cart.    s(44) = (  0.0000000  1.0000000  0.0000000 )    f =( -0.3535534 )
                  (  0.0000000  0.0000000  1.0000000 )       ( -0.3535534 )
                  ( -1.0000000  0.0000000  0.0000000 )       ( -0.3535534 )


      isym = 45     inv. 120 deg rotation - cart. axis [1,1,1]   

 cryst.   s(45) = (     0         -1          0      )    f =( -0.2500000 )
                  (     0          0         -1      )       ( -0.2500000 )
                  (    -1          0          0      )       ( -0.2500000 )

 cart.    s(45) = (  0.0000000  0.0000000 -1.0000000 )    f =( -0.3535534 )
                  ( -1.0000000  0.0000000  0.0000000 )       ( -0.3535534 )
                  (  0.0000000 -1.0000000  0.0000000 )       ( -0.3535534 )


      isym = 46     inv. 120 deg rotation - cart. axis [-1,1,-1] 

 cryst.   s(46) = (     1          0         -1      )    f =( -0.2500000 )
                  (     1         -1          0      )       ( -0.2500000 )
                  (     1          0          0      )       ( -0.2500000 )

 cart.    s(46) = (  0.0000000  0.0000000 -1.0000000 )    f =( -0.3535534 )
                  (  1.0000000  0.0000000  0.0000000 )       ( -0.3535534 )
                  (  0.0000000  1.0000000  0.0000000 )       ( -0.3535534 )


      isym = 47     inv. 120 deg rotation - cart. axis [1,-1,-1] 

 cryst.   s(47) = (    -1          0          1      )    f =( -0.2500000 )
                  (     0          0          1      )       ( -0.2500000 )
                  (     0         -1          1      )       ( -0.2500000 )

 cart.    s(47) = (  0.0000000  0.0000000  1.0000000 )    f =( -0.3535534 )
                  (  1.0000000  0.0000000  0.0000000 )       ( -0.3535534 )
                  (  0.0000000 -1.0000000  0.0000000 )       ( -0.3535534 )


      isym = 48     inv. 120 deg rotation - cart. axis [-1,-1,1] 

 cryst.   s(48) = (     0          1          0      )    f =( -0.2500000 )
                  (    -1          1          0      )       ( -0.2500000 )
                  (     0          1         -1      )       ( -0.2500000 )

 cart.    s(48) = (  0.0000000  0.0000000  1.0000000 )    f =( -0.3535534 )
                  ( -1.0000000  0.0000000  0.0000000 )       ( -0.3535534 )
                  (  0.0000000  1.0000000  0.0000000 )       ( -0.3535534 )


   Cartesian axes

     site n.     atom                  positions (alat units)
         1        Ge     tau(   1) = (   0.7071068   0.7071068   0.7071068  )
         2        Ge     tau(   2) = (   1.0606602   1.0606602   1.0606602  )

   Crystallographic axes

     site n.     atom                  positions (cryst. coord.)
         1        Ge     tau(   1) = (  0.5000000  0.5000000  0.5000000  )
         2        Ge     tau(   2) = (  0.7500000  0.7500000  0.7500000  )

     number of k points=    84  Marzari-Vanderbilt smearing, width (Ry)=  0.0200
                       cart. coord. in units 2pi/alat
        k(    1) = (   0.0000000   0.0000000   0.0000000), wk =   0.0009103
        k(    2) = (   0.0543928   0.0543928  -0.0543928), wk =   0.0072827
        k(    3) = (   0.1087857   0.1087857  -0.1087857), wk =   0.0072827
        k(    4) = (   0.1631785   0.1631785  -0.1631785), wk =   0.0072827
        k(    5) = (   0.2175713   0.2175713  -0.2175713), wk =   0.0072827
        k(    6) = (   0.2719641   0.2719641  -0.2719641), wk =   0.0072827
        k(    7) = (   0.3263570   0.3263570  -0.3263570), wk =   0.0072827
        k(    8) = (   0.1087857   0.0000000   0.0000000), wk =   0.0054620
        k(    9) = (   0.1631785   0.0543928  -0.0543928), wk =   0.0218480
        k(   10) = (   0.2175713   0.1087857  -0.1087857), wk =   0.0218480
        k(   11) = (   0.2719641   0.1631785  -0.1631785), wk =   0.0218480
        k(   12) = (   0.3263570   0.2175713  -0.2175713), wk =   0.0218480
        k(   13) = (   0.3807498   0.2719641  -0.2719641), wk =   0.0218480
        k(   14) = (  -0.2719641  -0.3807498   0.3807498), wk =   0.0218480
        k(   15) = (  -0.2175713  -0.3263570   0.3263570), wk =   0.0218480
        k(   16) = (  -0.1631785  -0.2719641   0.2719641), wk =   0.0218480
        k(   17) = (  -0.1087857  -0.2175713   0.2175713), wk =   0.0218480
        k(   18) = (  -0.0543928  -0.1631785   0.1631785), wk =   0.0218480
        k(   19) = (   0.0000000  -0.1087857   0.1087857), wk =   0.0109240
        k(   20) = (   0.2175713   0.0000000   0.0000000), wk =   0.0054620
        k(   21) = (   0.2719641   0.0543928  -0.0543928), wk =   0.0218480
        k(   22) = (   0.3263570   0.1087857  -0.1087857), wk =   0.0218480
        k(   23) = (   0.3807498   0.1631785  -0.1631785), wk =   0.0218480
        k(   24) = (   0.4351426   0.2175713  -0.2175713), wk =   0.0218480
        k(   25) = (  -0.2175713  -0.4351426   0.4351426), wk =   0.0218480
        k(   26) = (  -0.1631785  -0.3807498   0.3807498), wk =   0.0218480
        k(   27) = (  -0.1087857  -0.3263570   0.3263570), wk =   0.0218480
        k(   28) = (  -0.0543928  -0.2719641   0.2719641), wk =   0.0218480
        k(   29) = (   0.0000000  -0.2175713   0.2175713), wk =   0.0109240
        k(   30) = (   0.3263570   0.0000000   0.0000000), wk =   0.0054620
        k(   31) = (   0.3807498   0.0543928  -0.0543928), wk =   0.0218480
        k(   32) = (   0.4351426   0.1087857  -0.1087857), wk =   0.0218480
        k(   33) = (   0.4895355   0.1631785  -0.1631785), wk =   0.0218480
        k(   34) = (  -0.1631785  -0.4895355   0.4895355), wk =   0.0218480
        k(   35) = (  -0.1087857  -0.4351426   0.4351426), wk =   0.0218480
        k(   36) = (  -0.0543928  -0.3807498   0.3807498), wk =   0.0218480
        k(   37) = (   0.0000000  -0.3263570   0.3263570), wk =   0.0109240
        k(   38) = (   0.4351426   0.0000000   0.0000000), wk =   0.0054620
        k(   39) = (   0.4895355   0.0543928  -0.0543928), wk =   0.0218480
        k(   40) = (   0.5439283   0.1087857  -0.1087857), wk =   0.0218480
        k(   41) = (  -0.1087857  -0.5439283   0.5439283), wk =   0.0218480
        k(   42) = (  -0.0543928  -0.4895355   0.4895355), wk =   0.0218480
        k(   43) = (   0.0000000  -0.4351426   0.4351426), wk =   0.0109240
        k(   44) = (   0.5439283   0.0000000   0.0000000), wk =   0.0054620
        k(   45) = (   0.5983211   0.0543928  -0.0543928), wk =   0.0218480
        k(   46) = (  -0.0543928  -0.5983211   0.5983211), wk =   0.0218480
        k(   47) = (   0.0000000  -0.5439283   0.5439283), wk =   0.0109240
        k(   48) = (   0.6527140   0.0000000   0.0000000), wk =   0.0054620
        k(   49) = (   0.0000000  -0.6527140   0.6527140), wk =   0.0109240
        k(   50) = (   0.2175713   0.1087857   0.0000000), wk =   0.0218480
        k(   51) = (   0.2719641   0.1631785  -0.0543928), wk =   0.0436959
        k(   52) = (   0.3263570   0.2175713  -0.1087857), wk =   0.0436959
        k(   53) = (   0.3807498   0.2719641  -0.1631785), wk =   0.0436959
        k(   54) = (  -0.2719641  -0.3807498   0.4895355), wk =   0.0436959
        k(   55) = (   0.3263570   0.1087857   0.0000000), wk =   0.0218480
        k(   56) = (   0.3807498   0.1631785  -0.0543928), wk =   0.0436959
        k(   57) = (   0.4351426   0.2175713  -0.1087857), wk =   0.0436959
        k(   58) = (  -0.2175713  -0.4351426   0.5439283), wk =   0.0436959
        k(   59) = (  -0.1631785  -0.3807498   0.4895355), wk =   0.0436959
        k(   60) = (  -0.1087857  -0.3263570   0.4351426), wk =   0.0436959
        k(   61) = (  -0.0543928  -0.2719641   0.3807498), wk =   0.0436959
        k(   62) = (   0.0000000  -0.2175713   0.3263570), wk =   0.0218480
        k(   63) = (   0.4351426   0.1087857   0.0000000), wk =   0.0218480
        k(   64) = (   0.4895355   0.1631785  -0.0543928), wk =   0.0436959
        k(   65) = (  -0.1631785  -0.4895355   0.5983211), wk =   0.0436959
        k(   66) = (  -0.1087857  -0.4351426   0.5439283), wk =   0.0436959
        k(   67) = (  -0.0543928  -0.3807498   0.4895355), wk =   0.0436959
        k(   68) = (   0.0000000  -0.3263570   0.4351426), wk =   0.0218480
        k(   69) = (   0.5439283   0.1087857   0.0000000), wk =   0.0218480
        k(   70) = (  -0.1087857  -0.5439283   0.6527140), wk =   0.0436959
        k(   71) = (  -0.0543928  -0.4895355   0.5983211), wk =   0.0436959
        k(   72) = (   0.0000000  -0.4351426   0.5439283), wk =   0.0218480
        k(   73) = (  -0.0543928  -0.5983211   0.7071068), wk =   0.0218480
        k(   74) = (   0.0000000  -0.5439283   0.6527140), wk =   0.0218480
        k(   75) = (   0.4351426   0.2175713   0.0000000), wk =   0.0218480
        k(   76) = (  -0.2175713  -0.4351426   0.6527140), wk =   0.0436959
        k(   77) = (  -0.1631785  -0.3807498   0.5983211), wk =   0.0436959
        k(   78) = (  -0.1631785  -0.4895355   0.7071068), wk =   0.0218480
        k(   79) = (  -0.1087857  -0.4351426   0.6527140), wk =   0.0436959
        k(   80) = (  -0.0543928  -0.3807498   0.5983211), wk =   0.0436959
        k(   81) = (   0.0000000  -0.3263570   0.5439283), wk =   0.0218480
        k(   82) = (  -0.0543928  -0.4895355   0.7071068), wk =   0.0218480
        k(   83) = (   0.0000000  -0.4351426   0.6527140), wk =   0.0218480
        k(   84) = (  -0.0543928  -0.3807498   0.7071068), wk =   0.0218480

                       cryst. coord.
        k(    1) = (   0.0000000   0.0000000   0.0000000), wk =   0.0009103
        k(    2) = (   0.0000000   0.0000000   0.0769231), wk =   0.0072827
        k(    3) = (   0.0000000   0.0000000   0.1538462), wk =   0.0072827
        k(    4) = (   0.0000000   0.0000000   0.2307692), wk =   0.0072827
        k(    5) = (   0.0000000   0.0000000   0.3076923), wk =   0.0072827
        k(    6) = (   0.0000000   0.0000000   0.3846154), wk =   0.0072827
        k(    7) = (   0.0000000   0.0000000   0.4615385), wk =   0.0072827
        k(    8) = (   0.0000000   0.0769231   0.0769231), wk =   0.0054620
        k(    9) = (   0.0000000   0.0769231   0.1538462), wk =   0.0218480
        k(   10) = (   0.0000000   0.0769231   0.2307692), wk =   0.0218480
        k(   11) = (   0.0000000   0.0769231   0.3076923), wk =   0.0218480
        k(   12) = (   0.0000000   0.0769231   0.3846154), wk =   0.0218480
        k(   13) = (   0.0000000   0.0769231   0.4615385), wk =   0.0218480
        k(   14) = (   0.0000000   0.0769231  -0.4615385), wk =   0.0218480
        k(   15) = (   0.0000000   0.0769231  -0.3846154), wk =   0.0218480
        k(   16) = (   0.0000000   0.0769231  -0.3076923), wk =   0.0218480
        k(   17) = (   0.0000000   0.0769231  -0.2307692), wk =   0.0218480
        k(   18) = (   0.0000000   0.0769231  -0.1538462), wk =   0.0218480
        k(   19) = (   0.0000000   0.0769231  -0.0769231), wk =   0.0109240
        k(   20) = (   0.0000000   0.1538462   0.1538462), wk =   0.0054620
        k(   21) = (   0.0000000   0.1538462   0.2307692), wk =   0.0218480
        k(   22) = (   0.0000000   0.1538462   0.3076923), wk =   0.0218480
        k(   23) = (   0.0000000   0.1538462   0.3846154), wk =   0.0218480
        k(   24) = (   0.0000000   0.1538462   0.4615385), wk =   0.0218480
        k(   25) = (   0.0000000   0.1538462  -0.4615385), wk =   0.0218480
        k(   26) = (   0.0000000   0.1538462  -0.3846154), wk =   0.0218480
        k(   27) = (   0.0000000   0.1538462  -0.3076923), wk =   0.0218480
        k(   28) = (   0.0000000   0.1538462  -0.2307692), wk =   0.0218480
        k(   29) = (   0.0000000   0.1538462  -0.1538462), wk =   0.0109240
        k(   30) = (   0.0000000   0.2307692   0.2307692), wk =   0.0054620
        k(   31) = (   0.0000000   0.2307692   0.3076923), wk =   0.0218480
        k(   32) = (   0.0000000   0.2307692   0.3846154), wk =   0.0218480
        k(   33) = (   0.0000000   0.2307692   0.4615385), wk =   0.0218480
        k(   34) = (   0.0000000   0.2307692  -0.4615385), wk =   0.0218480
        k(   35) = (   0.0000000   0.2307692  -0.3846154), wk =   0.0218480
        k(   36) = (   0.0000000   0.2307692  -0.3076923), wk =   0.0218480
        k(   37) = (   0.0000000   0.2307692  -0.2307692), wk =   0.0109240
        k(   38) = (   0.0000000   0.3076923   0.3076923), wk =   0.0054620
        k(   39) = (   0.0000000   0.3076923   0.3846154), wk =   0.0218480
        k(   40) = (   0.0000000   0.3076923   0.4615385), wk =   0.0218480
        k(   41) = (   0.0000000   0.3076923  -0.4615385), wk =   0.0218480
        k(   42) = (   0.0000000   0.3076923  -0.3846154), wk =   0.0218480
        k(   43) = (   0.0000000   0.3076923  -0.3076923), wk =   0.0109240
        k(   44) = (   0.0000000   0.3846154   0.3846154), wk =   0.0054620
        k(   45) = (   0.0000000   0.3846154   0.4615385), wk =   0.0218480
        k(   46) = (   0.0000000   0.3846154  -0.4615385), wk =   0.0218480
        k(   47) = (   0.0000000   0.3846154  -0.3846154), wk =   0.0109240
        k(   48) = (   0.0000000   0.4615385   0.4615385), wk =   0.0054620
        k(   49) = (   0.0000000   0.4615385  -0.4615385), wk =   0.0109240
        k(   50) = (   0.0769231   0.1538462   0.2307692), wk =   0.0218480
        k(   51) = (   0.0769231   0.1538462   0.3076923), wk =   0.0436959
        k(   52) = (   0.0769231   0.1538462   0.3846154), wk =   0.0436959
        k(   53) = (   0.0769231   0.1538462   0.4615385), wk =   0.0436959
        k(   54) = (   0.0769231   0.1538462  -0.4615385), wk =   0.0436959
        k(   55) = (   0.0769231   0.2307692   0.3076923), wk =   0.0218480
        k(   56) = (   0.0769231   0.2307692   0.3846154), wk =   0.0436959
        k(   57) = (   0.0769231   0.2307692   0.4615385), wk =   0.0436959
        k(   58) = (   0.0769231   0.2307692  -0.4615385), wk =   0.0436959
        k(   59) = (   0.0769231   0.2307692  -0.3846154), wk =   0.0436959
        k(   60) = (   0.0769231   0.2307692  -0.3076923), wk =   0.0436959
        k(   61) = (   0.0769231   0.2307692  -0.2307692), wk =   0.0436959
        k(   62) = (   0.0769231   0.2307692  -0.1538462), wk =   0.0218480
        k(   63) = (   0.0769231   0.3076923   0.3846154), wk =   0.0218480
        k(   64) = (   0.0769231   0.3076923   0.4615385), wk =   0.0436959
        k(   65) = (   0.0769231   0.3076923  -0.4615385), wk =   0.0436959
        k(   66) = (   0.0769231   0.3076923  -0.3846154), wk =   0.0436959
        k(   67) = (   0.0769231   0.3076923  -0.3076923), wk =   0.0436959
        k(   68) = (   0.0769231   0.3076923  -0.2307692), wk =   0.0218480
        k(   69) = (   0.0769231   0.3846154   0.4615385), wk =   0.0218480
        k(   70) = (   0.0769231   0.3846154  -0.4615385), wk =   0.0436959
        k(   71) = (   0.0769231   0.3846154  -0.3846154), wk =   0.0436959
        k(   72) = (   0.0769231   0.3846154  -0.3076923), wk =   0.0218480
        k(   73) = (   0.0769231   0.4615385  -0.4615385), wk =   0.0218480
        k(   74) = (   0.0769231   0.4615385  -0.3846154), wk =   0.0218480
        k(   75) = (   0.1538462   0.3076923   0.4615385), wk =   0.0218480
        k(   76) = (   0.1538462   0.3076923  -0.4615385), wk =   0.0436959
        k(   77) = (   0.1538462   0.3076923  -0.3846154), wk =   0.0436959
        k(   78) = (   0.1538462   0.3846154  -0.4615385), wk =   0.0218480
        k(   79) = (   0.1538462   0.3846154  -0.3846154), wk =   0.0436959
        k(   80) = (   0.1538462   0.3846154  -0.3076923), wk =   0.0436959
        k(   81) = (   0.1538462   0.3846154  -0.2307692), wk =   0.0218480
        k(   82) = (   0.1538462   0.4615385  -0.3846154), wk =   0.0218480
        k(   83) = (   0.1538462   0.4615385  -0.3076923), wk =   0.0218480
        k(   84) = (   0.2307692   0.4615385  -0.3076923), wk =   0.0218480

     Dense  grid:    34015 G-vectors     FFT dimensions: (  48,  48,  48)

     Smooth grid:    12039 G-vectors     FFT dimensions: (  32,  32,  32)

     Dynamical RAM for                 wfc:       0.41 MB

     Dynamical RAM for     wfc (w. buffer):      35.07 MB

     Dynamical RAM for           str. fact:       0.52 MB

     Dynamical RAM for           local pot:       0.00 MB

     Dynamical RAM for          nlocal pot:       0.83 MB

     Dynamical RAM for                qrad:       1.52 MB

     Dynamical RAM for          rho,v,vnew:       4.09 MB

     Dynamical RAM for               rhoin:       1.36 MB

     Dynamical RAM for            rho*nmix:       8.30 MB

     Dynamical RAM for           G-vectors:       2.04 MB

     Dynamical RAM for          h,s,v(r/c):       0.06 MB

     Dynamical RAM for          <psi|beta>:       0.01 MB

     Dynamical RAM for                 psi:       0.83 MB

     Dynamical RAM for                hpsi:       0.83 MB

     Dynamical RAM for                spsi:       0.83 MB

     Dynamical RAM for      wfcinit/wfcrot:       0.83 MB

     Dynamical RAM for           addusdens:      97.58 MB

     Dynamical RAM for          addusforce:      98.88 MB

     Dynamical RAM for         addusstress:     104.32 MB

     Estimated static dynamical RAM per process >      50.68 MB

     Estimated max dynamical RAM per process >     163.31 MB

     Initial potential from superposition of free atoms

     starting charge      27.9984, renormalised to      28.0000
     Starting wfcs are   18 randomized atomic wfcs

     total cpu time spent up to now is        3.6 secs

     Self-consistent Calculation

     iteration #  1     ecut=    45.00 Ry     beta= 0.40
     Davidson diagonalization with overlap

---- Real-time Memory Report at c_bands before calling an iterative solver
           142 MiB given to the printing process from OS
             0 MiB allocation reported by mallinfo(arena+hblkhd)
           583 MiB available memory on the node where the printing process lives
------------------
     ethr =  1.00E-02,  avg # of iterations =  3.3

     Threshold (ethr) on eigenvalues was too large:
     Diagonalizing with lowered threshold

     Davidson diagonalization with overlap

---- Real-time Memory Report at c_bands before calling an iterative solver
           180 MiB given to the printing process from OS
             0 MiB allocation reported by mallinfo(arena+hblkhd)
           670 MiB available memory on the node where the printing process lives
------------------
     ethr =  1.20E-04,  avg # of iterations =  2.6

     total cpu time spent up to now is       21.4 secs

     total energy              =    -426.38161046 Ry
     estimated scf accuracy    <       0.03495169 Ry

     iteration #  2     ecut=    45.00 Ry     beta= 0.40
     Davidson diagonalization with overlap

---- Real-time Memory Report at c_bands before calling an iterative solver
           187 MiB given to the printing process from OS
             0 MiB allocation reported by mallinfo(arena+hblkhd)
           629 MiB available memory on the node where the printing process lives
------------------
     ethr =  1.25E-04,  avg # of iterations =  1.0

     total cpu time spent up to now is       29.3 secs

     total energy              =    -426.37922130 Ry
     estimated scf accuracy    <       0.01006895 Ry

     iteration #  3     ecut=    45.00 Ry     beta= 0.40
     Davidson diagonalization with overlap

---- Real-time Memory Report at c_bands before calling an iterative solver
           188 MiB given to the printing process from OS
             0 MiB allocation reported by mallinfo(arena+hblkhd)
           629 MiB available memory on the node where the printing process lives
------------------
     ethr =  3.60E-05,  avg # of iterations =  1.9

     total cpu time spent up to now is       37.4 secs

     total energy              =    -426.37972495 Ry
     estimated scf accuracy    <       0.00009633 Ry

     iteration #  4     ecut=    45.00 Ry     beta= 0.40
     Davidson diagonalization with overlap

---- Real-time Memory Report at c_bands before calling an iterative solver
           188 MiB given to the printing process from OS
             0 MiB allocation reported by mallinfo(arena+hblkhd)
           633 MiB available memory on the node where the printing process lives
------------------
     ethr =  3.44E-07,  avg # of iterations =  3.2

     total cpu time spent up to now is       47.9 secs

     total energy              =    -426.37974431 Ry
     estimated scf accuracy    <       0.00000443 Ry

     iteration #  5     ecut=    45.00 Ry     beta= 0.40
     Davidson diagonalization with overlap

---- Real-time Memory Report at c_bands before calling an iterative solver
           189 MiB given to the printing process from OS
             0 MiB allocation reported by mallinfo(arena+hblkhd)
           604 MiB available memory on the node where the printing process lives
------------------
     ethr =  1.58E-08,  avg # of iterations =  2.0

     total cpu time spent up to now is       57.6 secs

     total energy              =    -426.37974530 Ry
     estimated scf accuracy    <       0.00000031 Ry

     iteration #  6     ecut=    45.00 Ry     beta= 0.40
     Davidson diagonalization with overlap

---- Real-time Memory Report at c_bands before calling an iterative solver
           189 MiB given to the printing process from OS
             0 MiB allocation reported by mallinfo(arena+hblkhd)
           603 MiB available memory on the node where the printing process lives
------------------
     ethr =  1.12E-09,  avg # of iterations =  2.0

     total cpu time spent up to now is       67.4 secs

     total energy              =    -426.37974533 Ry
     estimated scf accuracy    <       0.00000007 Ry

     iteration #  7     ecut=    45.00 Ry     beta= 0.40
     Davidson diagonalization with overlap

---- Real-time Memory Report at c_bands before calling an iterative solver
           189 MiB given to the printing process from OS
             0 MiB allocation reported by mallinfo(arena+hblkhd)
           633 MiB available memory on the node where the printing process lives
------------------
     ethr =  2.47E-10,  avg # of iterations =  2.0

     total cpu time spent up to now is       77.6 secs

     total energy              =    -426.37974535 Ry
     estimated scf accuracy    <       0.00000001 Ry

     iteration #  8     ecut=    45.00 Ry     beta= 0.40
     Davidson diagonalization with overlap

---- Real-time Memory Report at c_bands before calling an iterative solver
           190 MiB given to the printing process from OS
             0 MiB allocation reported by mallinfo(arena+hblkhd)
           593 MiB available memory on the node where the printing process lives
------------------
     ethr =  5.31E-11,  avg # of iterations =  2.0

     total cpu time spent up to now is       87.4 secs

     End of self-consistent calculation

          k = 0.0000 0.0000 0.0000 (  1459 PWs)   bands (ev):

   -16.0445 -16.0445 -16.0445 -16.0052 -16.0052 -15.7736 -15.7736 -15.7736
   -15.7566 -15.7566  -4.2593   8.8173   8.8173   8.8173   9.1346  11.3611
    11.3611  11.3611

     occupation numbers 
     1.0000   1.0000   1.0000   1.0000   1.0000   1.0000   1.0000   1.0000
     1.0000   1.0000   1.0000   0.5106   0.5106   0.5106   0.0282   0.0000
     0.0000   0.0000

          k = 0.0544 0.0544-0.0544 (  1462 PWs)   bands (ev):

   -16.0487 -16.0487 -16.0435 -15.9996 -15.9996 -15.7797 -15.7797 -15.7749
   -15.7513 -15.7513  -4.1842   7.4716   8.6642   8.6642   9.9194  11.5638
    11.5638  11.7238

     occupation numbers 
     1.0000   1.0000   1.0000   1.0000   1.0000   1.0000   1.0000   1.0000
     1.0000   1.0000   1.0000   1.0000   0.9041   0.9041   0.0000   0.0000
     0.0000   0.0000

          k = 0.1088 0.1088-0.1088 (  1492 PWs)   bands (ev):

   -16.0565 -16.0565 -16.0405 -15.9880 -15.9880 -15.7898 -15.7898 -15.7785
   -15.7433 -15.7433  -3.9612   5.8993   8.3288   8.3288   9.9139  12.0051
    12.0051  12.8656

     occupation numbers 
     1.0000   1.0000   1.0000   1.0000   1.0000   1.0000   1.0000   1.0000
     1.0000   1.0000   1.0000   1.0000   1.0458   1.0458   0.0000   0.0000
     0.0000   0.0000

          k = 0.1632 0.1632-0.1632 (  1489 PWs)   bands (ev):

   -16.0632 -16.0632 -16.0363 -15.9762 -15.9762 -15.7988 -15.7988 -15.7836
   -15.7367 -15.7367  -3.5984   4.3875   7.9743   7.9743   9.6299  12.4025
    12.4025  14.2458

     occupation numbers 
     1.0000   1.0000   1.0000   1.0000   1.0000   1.0000   1.0000   1.0000
     1.0000   1.0000   1.0000   1.0000   1.0005   1.0005   0.0000   0.0000
     0.0000   0.0000

          k = 0.2176 0.2176-0.2176 (  1495 PWs)   bands (ev):

   -16.0677 -16.0677 -16.0318 -15.9672 -15.9672 -15.8052 -15.8052 -15.7890
   -15.7321 -15.7321  -3.1169   3.0145   7.6783   7.6783   9.3570  12.5816
    12.5816  15.6127

     occupation numbers 
     1.0000   1.0000   1.0000   1.0000   1.0000   1.0000   1.0000   1.0000
     1.0000   1.0000   1.0000   1.0000   1.0000   1.0000   0.0008   0.0000
     0.0000   0.0000

          k = 0.2720 0.2720-0.2720 (  1492 PWs)   bands (ev):

   -16.0701 -16.0701 -16.0280 -15.9617 -15.9617 -15.8085 -15.8085 -15.7936
   -15.7295 -15.7295  -2.5742   1.8659   7.4716   7.4716   9.1617  12.5841
    12.5841  15.9581

     occupation numbers 
     1.0000   1.0000   1.0000   1.0000   1.0000   1.0000   1.0000   1.0000
     1.0000   1.0000   1.0000   1.0000   1.0000   1.0000   0.0196   0.0000
     0.0000   0.0000

          k = 0.3264 0.3264-0.3264 (  1489 PWs)   bands (ev):

   -16.0711 -16.0711 -16.0258 -15.9595 -15.9595 -15.8096 -15.8096 -15.7962
   -15.7283 -15.7283  -2.1399   1.1255   7.3661   7.3661   9.0616  12.5456
    12.5456  15.8206

     occupation numbers 
     1.0000   1.0000   1.0000   1.0000   1.0000   1.0000   1.0000   1.0000
     1.0000   1.0000   1.0000   1.0000   1.0000   1.0000   0.0686   0.0000
     0.0000   0.0000

          k = 0.1088 0.0000 0.0000 (  1463 PWs)   bands (ev):

   -16.0493 -16.0470 -16.0470 -16.0014 -15.9937 -15.7922 -15.7698 -15.7698
   -15.7600 -15.7462  -4.1591   7.4414   8.3804   8.3804  10.4654  11.0444
    11.9232  11.9232

     occupation numbers 
     1.0000   1.0000   1.0000   1.0000   1.0000   1.0000   1.0000   1.0000
     1.0000   1.0000   1.0000   1.0000   1.0635   1.0635   0.0000   0.0000
     0.0000   0.0000

          k = 0.1632 0.0544-0.0544 (  1481 PWs)   bands (ev):

   -16.0572 -16.0521 -16.0447 -15.9937 -15.9815 -15.8056 -15.7761 -15.7692
   -15.7543 -15.7398  -3.9850   6.2504   7.9969   8.0930  10.7071  11.1307
    12.4554  12.7593

     occupation numbers 
     1.0000   1.0000   1.0000   1.0000   1.0000   1.0000   1.0000   1.0000
     1.0000   1.0000   1.0000   1.0000   1.0007   1.0033   0.0000   0.0000
     0.0000   0.0000

          k = 0.2176 0.1088-0.1088 (  1494 PWs)   bands (ev):

   -16.0657 -16.0588 -16.0392 -15.9827 -15.9687 -15.8169 -15.7864 -15.7739
   -15.7456 -15.7328  -3.6675   4.8142   7.6425   7.7188  10.4540  11.6330
    12.9155  13.7805

     occupation numbers 
     1.0000   1.0000   1.0000   1.0000   1.0000   1.0000   1.0000   1.0000
     1.0000   1.0000   1.0000   1.0000   1.0000   1.0000   0.0000   0.0000
     0.0000   0.0000

          k = 0.2720 0.1632-0.1632 (  1498 PWs)   bands (ev):

   -16.0722 -16.0643 -16.0323 -15.9723 -15.9586 -15.8240 -15.7955 -15.7816
   -15.7384 -15.7268  -3.2220   3.4329   7.3289   7.3744  10.1616  12.0664
    13.1160  14.6286

     occupation numbers 
     1.0000   1.0000   1.0000   1.0000   1.0000   1.0000   1.0000   1.0000
     1.0000   1.0000   1.0000   1.0000   1.0000   1.0000   0.0000   0.0000
     0.0000   0.0000

          k = 0.3264 0.2176-0.2176 (  1490 PWs)   bands (ev):

   -16.0762 -16.0683 -16.0253 -15.9641 -15.9534 -15.8256 -15.8031 -15.7901
   -15.7329 -15.7228  -2.6888   2.2191   6.9999   7.2161   9.9244  12.2536
    13.0661  15.5012

     occupation numbers 
     1.0000   1.0000   1.0000   1.0000   1.0000   1.0000   1.0000   1.0000
     1.0000   1.0000   1.0000   1.0000   1.0000   1.0000   0.0000   0.0000
     0.0000   0.0000

          k = 0.3807 0.2720-0.2720 (  1500 PWs)   bands (ev):

   -16.0779 -16.0711 -16.0199 -15.9580 -15.9533 -15.8217 -15.8095 -15.7977
   -15.7287 -15.7213  -2.1863   1.3204   6.7626   7.1748   9.7742  12.3231
    12.9163  16.0551

     occupation numbers 
     1.0000   1.0000   1.0000   1.0000   1.0000   1.0000   1.0000   1.0000
     1.0000   1.0000   1.0000   1.0000   1.0000   1.0000   0.0000   0.0000
     0.0000   0.0000

          k =-0.2720-0.3807 0.3807 (  1499 PWs)   bands (ev):

   -16.0774 -16.0731 -16.0177 -15.9565 -15.9539 -15.8150 -15.8139 -15.8028
   -15.7257 -15.7224  -2.0101   1.0449   6.6322   7.2496   9.7220  12.4139
    12.7770  16.1618

     occupation numbers 
     1.0000   1.0000   1.0000   1.0000   1.0000   1.0000   1.0000   1.0000
     1.0000   1.0000   1.0000   1.0000   1.0000   1.0000   0.0000   0.0000
     0.0000   0.0000

          k =-0.2176-0.3264 0.3264 (  1499 PWs)   bands (ev):

   -16.0750 -16.0739 -16.0194 -15.9614 -15.9525 -15.8186 -15.8080 -15.8007
   -15.7259 -15.7243  -2.3375   1.5725   6.6187   7.4328   9.7699  12.5630
    12.6754  16.1426

     occupation numbers 
     1.0000   1.0000   1.0000   1.0000   1.0000   1.0000   1.0000   1.0000
     1.0000   1.0000   1.0000   1.0000   1.0000   1.0000   0.0000   0.0000
     0.0000   0.0000

          k =-0.1632-0.2720 0.2720 (  1494 PWs)   bands (ev):

   -16.0731 -16.0708 -16.0247 -15.9676 -15.9554 -15.8186 -15.8065 -15.7898
   -15.7318 -15.7249  -2.8728   2.6010   6.7293   7.7102   9.9136  12.5602
    12.7112  15.5330

     occupation numbers 
     1.0000   1.0000   1.0000   1.0000   1.0000   1.0000   1.0000   1.0000
     1.0000   1.0000   1.0000   1.0000   1.0000   1.0000   0.0000   0.0000
     0.0000   0.0000

          k =-0.1088-0.2176 0.2176 (  1496 PWs)   bands (ev):

   -16.0699 -16.0647 -16.0319 -15.9756 -15.9634 -15.8137 -15.8023 -15.7782
   -15.7400 -15.7280  -3.3840   3.8788   6.9713   8.0557  10.1352  12.3217
    12.6612  14.5042

     occupation numbers 
     1.0000   1.0000   1.0000   1.0000   1.0000   1.0000   1.0000   1.0000
     1.0000   1.0000   1.0000   1.0000   1.0000   1.0018   0.0000   0.0000
     0.0000   0.0000

          k =-0.0544-0.1632 0.1632 (  1488 PWs)   bands (ev):

   -16.0640 -16.0570 -16.0389 -15.9854 -15.9755 -15.8043 -15.7952 -15.7681
   -15.7498 -15.7336  -3.7893   5.2734   7.3580   8.4157  10.3703  11.9310
    12.1936  13.5905

     occupation numbers 
     1.0000   1.0000   1.0000   1.0000   1.0000   1.0000   1.0000   1.0000
     1.0000   1.0000   1.0000   1.0000   1.0000   1.0743   0.0000   0.0000
     0.0000   0.0000

          k = 0.0000-0.1088 0.1088 (  1476 PWs)   bands (ev):

   -16.0561 -16.0496 -16.0437 -15.9952 -15.9889 -15.7923 -15.7862 -15.7659
   -15.7557 -15.7416  -4.0597   6.6014   7.9442   8.6742  10.3518  11.5840
    11.6756  12.6130

     occupation numbers 
     1.0000   1.0000   1.0000   1.0000   1.0000   1.0000   1.0000   1.0000
     1.0000   1.0000   1.0000   1.0000   1.0003   0.8830   0.0000   0.0000
     0.0000   0.0000

          k = 0.2176 0.0000 0.0000 (  1491 PWs)   bands (ev):

   -16.0546 -16.0536 -16.0536 -15.9903 -15.9685 -15.8235 -15.7702 -15.7596
   -15.7596 -15.7392  -3.8596   5.9372   7.5908   7.5908  10.4238  11.6249
    13.0820  13.0820

     occupation numbers 
     1.0000   1.0000   1.0000   1.0000   1.0000   1.0000   1.0000   1.0000
     1.0000   1.0000   1.0000   1.0000   1.0000   1.0000   0.0000   0.0000
     0.0000   0.0000

          k = 0.2720 0.0544-0.0544 (  1491 PWs)   bands (ev):

   -16.0647 -16.0587 -16.0470 -15.9809 -15.9541 -15.8392 -15.7809 -15.7596
   -15.7501 -15.7343  -3.5889   4.9328   7.1713   7.2262  10.4240  11.7161
    13.6549  13.6620

     occupation numbers 
     1.0000   1.0000   1.0000   1.0000   1.0000   1.0000   1.0000   1.0000
     1.0000   1.0000   1.0000   1.0000   1.0000   1.0000   0.0000   0.0000
     0.0000   0.0000

          k = 0.3264 0.1088-0.1088 (  1493 PWs)   bands (ev):

   -16.0745 -16.0642 -16.0365 -15.9699 -15.9419 -15.8503 -15.7926 -15.7694
   -15.7407 -15.7253  -3.1837   3.7187   6.6784   6.9577  10.6081  11.8880
    13.7224  13.9774

     occupation numbers 
     1.0000   1.0000   1.0000   1.0000   1.0000   1.0000   1.0000   1.0000
     1.0000   1.0000   1.0000   1.0000   1.0000   1.0000   0.0000   0.0000
     0.0000   0.0000

          k = 0.3807 0.1632-0.1632 (  1495 PWs)   bands (ev):

   -16.0822 -16.0690 -16.0244 -15.9594 -15.9354 -15.8545 -15.8039 -15.7825
   -15.7329 -15.7172  -2.6722   2.5419   6.2174   6.8094  10.5473  12.3074
    13.9647  13.9955

     occupation numbers 
     1.0000   1.0000   1.0000   1.0000   1.0000   1.0000   1.0000   1.0000
     1.0000   1.0000   1.0000   1.0000   1.0000   1.0000   0.0000   0.0000
     0.0000   0.0000

          k = 0.4351 0.2176-0.2176 (  1495 PWs)   bands (ev):

   -16.0870 -16.0729 -16.0131 -15.9502 -15.9361 -15.8505 -15.8146 -15.7954
   -15.7266 -15.7119  -2.1350   1.5666   5.8514   6.7901  10.4429  12.4717
    13.7690  14.9271

     occupation numbers 
     1.0000   1.0000   1.0000   1.0000   1.0000   1.0000   1.0000   1.0000
     1.0000   1.0000   1.0000   1.0000   1.0000   1.0000   0.0000   0.0000
     0.0000   0.0000

          k =-0.2176-0.4351 0.4351 (  1499 PWs)   bands (ev):

   -16.0886 -16.0760 -16.0053 -15.9428 -15.9427 -15.8396 -15.8243 -15.8054
   -15.7219 -15.7104  -1.8074   1.0628   5.6067   6.8986  10.4120  12.5306
    13.5346  16.1199

     occupation numbers 
     1.0000   1.0000   1.0000   1.0000   1.0000   1.0000   1.0000   1.0000
     1.0000   1.0000   1.0000   1.0000   1.0000   1.0000   0.0000   0.0000
     0.0000   0.0000

          k =-0.1632-0.3807 0.3807 (  1498 PWs)   bands (ev):

   -16.0869 -16.0779 -16.0032 -15.9526 -15.9383 -15.8315 -15.8244 -15.8105
   -15.7192 -15.7132  -1.9928   1.3437   5.5015   7.1257  10.4740  12.6477
    13.3129  16.4013

     occupation numbers 
     1.0000   1.0000   1.0000   1.0000   1.0000   1.0000   1.0000   1.0000
     1.0000   1.0000   1.0000   1.0000   1.0000   1.0000   0.0000   0.0000
     0.0000   0.0000

          k =-0.1088-0.3264 0.3264 (  1501 PWs)   bands (ev):

   -16.0818 -16.0781 -16.0082 -15.9623 -15.9395 -15.8335 -15.8143 -15.8035
   -15.7203 -15.7188  -2.5000   2.2064   5.5581   7.4511  10.6142  12.8305
    13.0674  15.2725

     occupation numbers 
     1.0000   1.0000   1.0000   1.0000   1.0000   1.0000   1.0000   1.0000
     1.0000   1.0000   1.0000   1.0000   1.0000   1.0000   0.0000   0.0000
     0.0000   0.0000

          k =-0.0544-0.2720 0.2720 (  1506 PWs)   bands (ev):

   -16.0760 -16.0739 -16.0189 -15.9706 -15.9475 -15.8286 -15.8107 -15.7857
   -15.7313 -15.7210  -3.0320   3.3061   5.8197   7.8364  10.7829  12.7065
    12.8839  14.2659

     occupation numbers 
     1.0000   1.0000   1.0000   1.0000   1.0000   1.0000   1.0000   1.0000
     1.0000   1.0000   1.0000   1.0000   1.0000   1.0000   0.0000   0.0000
     0.0000   0.0000

          k = 0.0000-0.2176 0.2176 (  1492 PWs)   bands (ev):

   -16.0711 -16.0644 -16.0307 -15.9784 -15.9607 -15.8180 -15.8043 -15.7700
   -15.7446 -15.7260  -3.4746   4.4017   6.3867   8.2049  10.8121  12.2475
    12.4433  13.9632

     occupation numbers 
     1.0000   1.0000   1.0000   1.0000   1.0000   1.0000   1.0000   1.0000
     1.0000   1.0000   1.0000   1.0000   1.0000   1.0142   0.0000   0.0000
     0.0000   0.0000

          k = 0.3264 0.0000 0.0000 (  1491 PWs)   bands (ev):

   -16.0622 -16.0622 -16.0537 -15.9726 -15.9371 -15.8599 -15.7866 -15.7456
   -15.7456 -15.7413  -3.3645   4.4635   6.8451   6.8451   9.8464  11.7334
    14.4259  14.4259

     occupation numbers 
     1.0000   1.0000   1.0000   1.0000   1.0000   1.0000   1.0000   1.0000
     1.0000   1.0000   1.0000   1.0000   1.0000   1.0000   0.0000   0.0000
     0.0000   0.0000

          k = 0.3807 0.0544-0.0544 (  1499 PWs)   bands (ev):

   -16.0719 -16.0669 -16.0437 -15.9613 -15.9217 -15.8764 -15.7978 -15.7565
   -15.7376 -15.7296  -3.0017   3.5984   6.3779   6.5591   9.9166  11.5371
    14.5438  14.9627

     occupation numbers 
     1.0000   1.0000   1.0000   1.0000   1.0000   1.0000   1.0000   1.0000
     1.0000   1.0000   1.0000   1.0000   1.0000   1.0000   0.0000   0.0000
     0.0000   0.0000

          k = 0.4351 0.1088-0.1088 (  1504 PWs)   bands (ev):

   -16.0827 -16.0715 -16.0279 -15.9494 -15.9117 -15.8855 -15.8106 -15.7740
   -15.7297 -15.7170  -2.5199   2.6178   5.7732   6.3962  10.1676  11.8603
    14.2631  15.0984

     occupation numbers 
     1.0000   1.0000   1.0000   1.0000   1.0000   1.0000   1.0000   1.0000
     1.0000   1.0000   1.0000   1.0000   1.0000   1.0000   0.0000   0.0000
     0.0000   0.0000

          k = 0.4895 0.1632-0.1632 (  1505 PWs)   bands (ev):

   -16.0912 -16.0755 -16.0116 -15.9380 -15.9109 -15.8840 -15.8237 -15.7918
   -15.7231 -15.7073  -1.9733   1.6973   5.2310   6.3677  10.2260  12.8263
    14.0578  14.9300

     occupation numbers 
     1.0000   1.0000   1.0000   1.0000   1.0000   1.0000   1.0000   1.0000
     1.0000   1.0000   1.0000   1.0000   1.0000   1.0000   0.0000   0.0000
     0.0000   0.0000

          k =-0.1632-0.4895 0.4895 (  1509 PWs)   bands (ev):

   -16.0961 -16.0788 -15.9987 -15.9279 -15.9178 -15.8743 -15.8362 -15.8057
   -15.7181 -15.7020  -1.5333   1.0677   4.8371   6.4744  10.2856  13.5591
    14.5473  14.6440

     occupation numbers 
     1.0000   1.0000   1.0000   1.0000   1.0000   1.0000   1.0000   1.0000
     1.0000   1.0000   1.0000   1.0000   1.0000   1.0000   0.0000   0.0000
     0.0000   0.0000

          k =-0.1088-0.4351 0.4351 (  1505 PWs)   bands (ev):

   -16.0967 -16.0810 -15.9920 -15.9317 -15.9212 -15.8574 -15.8459 -15.8128
   -15.7151 -15.7019  -1.5599   1.1091   4.6307   6.7080  10.4378  13.6045
    14.3187  15.9304

     occupation numbers 
     1.0000   1.0000   1.0000   1.0000   1.0000   1.0000   1.0000   1.0000
     1.0000   1.0000   1.0000   1.0000   1.0000   1.0000   0.0000   0.0000
     0.0000   0.0000

          k =-0.0544-0.3807 0.3807 (  1504 PWs)   bands (ev):

   -16.0926 -16.0816 -15.9931 -15.9490 -15.9222 -15.8482 -15.8358 -15.8131
   -15.7145 -15.7073  -2.0196   1.7640   4.6603   7.0478  10.6700  13.6792
    13.9102  15.1075

     occupation numbers 
     1.0000   1.0000   1.0000   1.0000   1.0000   1.0000   1.0000   1.0000
     1.0000   1.0000   1.0000   1.0000   1.0000   1.0000   0.0000   0.0000
     0.0000   0.0000

          k = 0.0000-0.3264 0.3264 (  1506 PWs)   bands (ev):

   -16.0845 -16.0800 -16.0032 -15.9625 -15.9323 -15.8413 -15.8191 -15.8033
   -15.7178 -15.7165  -2.5609   2.5888   5.0212   7.4517  10.8835  13.3349
    13.6352  14.0496

     occupation numbers 
     1.0000   1.0000   1.0000   1.0000   1.0000   1.0000   1.0000   1.0000
     1.0000   1.0000   1.0000   1.0000   1.0000   1.0000   0.0000   0.0000
     0.0000   0.0000

          k = 0.4351 0.0000 0.0000 (  1495 PWs)   bands (ev):

   -16.0707 -16.0707 -16.0450 -15.9494 -15.9023 -15.8986 -15.8083 -15.7527
   -15.7314 -15.7314  -2.6803   3.0319   6.2483   6.2483   9.4402  10.9799
    15.8325  15.8325

     occupation numbers 
     1.0000   1.0000   1.0000   1.0000   1.0000   1.0000   1.0000   1.0000
     1.0000   1.0000   1.0000   1.0000   1.0000   1.0000   0.0002   0.0000
     0.0000   0.0000

          k = 0.4895 0.0544-0.0544 (  1499 PWs)   bands (ev):

   -16.0788 -16.0745 -16.0319 -15.9364 -15.9146 -15.8869 -15.8212 -15.7681
   -15.7248 -15.7204  -2.2326   2.2726   5.7927   6.0586   9.5880  10.7937
    15.8689  16.2861

     occupation numbers 
     1.0000   1.0000   1.0000   1.0000   1.0000   1.0000   1.0000   1.0000
     1.0000   1.0000   1.0000   1.0000   1.0000   1.0000   0.0000   0.0000
     0.0000   0.0000

          k = 0.5439 0.1088-0.1088 (  1506 PWs)   bands (ev):

   -16.0892 -16.0779 -16.0126 -15.9234 -15.9217 -15.8785 -15.8353 -15.7890
   -15.7192 -15.7084  -1.6938   1.4972   5.1361   6.0049   9.8129  11.3775
    15.5692  16.2541

     occupation numbers 
     1.0000   1.0000   1.0000   1.0000   1.0000   1.0000   1.0000   1.0000
     1.0000   1.0000   1.0000   1.0000   1.0000   1.0000   0.0000   0.0000
     0.0000   0.0000

          k =-0.1088-0.5439 0.5439 (  1505 PWs)   bands (ev):

   -16.0973 -16.0807 -15.9959 -15.9163 -15.9113 -15.8815 -15.8495 -15.8066
   -15.7151 -15.6997  -1.1816   0.8659   4.5629   6.0902   9.9195  12.6205
    15.3050  15.9528

     occupation numbers 
     1.0000   1.0000   1.0000   1.0000   1.0000   1.0000   1.0000   1.0000
     1.0000   1.0000   1.0000   1.0000   1.0000   1.0000   0.0000   0.0000
     0.0000   0.0000

          k =-0.0544-0.4895 0.4895 (  1504 PWs)   bands (ev):

   -16.1011 -16.0825 -15.9875 -15.9034 -15.9032 -15.8920 -15.8603 -15.8148
   -15.7127 -15.6962  -1.0684   0.7466   4.2196   6.3083  10.1026  14.1471
    15.1385  15.4952

     occupation numbers 
     1.0000   1.0000   1.0000   1.0000   1.0000   1.0000   1.0000   1.0000
     1.0000   1.0000   1.0000   1.0000   1.0000   1.0000   0.0000   0.0000
     0.0000   0.0000

          k = 0.0000-0.4351 0.4351 (  1508 PWs)   bands (ev):

   -16.0995 -16.0830 -15.9867 -15.9259 -15.9076 -15.8659 -15.8596 -15.8158
   -15.7125 -15.6987  -1.4837   1.2139   4.2148   6.6406  10.3839  14.8096
    14.8899  15.1469

     occupation numbers 
     1.0000   1.0000   1.0000   1.0000   1.0000   1.0000   1.0000   1.0000
     1.0000   1.0000   1.0000   1.0000   1.0000   1.0000   0.0000   0.0000
     0.0000   0.0000

          k = 0.5439 0.0000 0.0000 (  1512 PWs)   bands (ev):

   -16.0773 -16.0773 -16.0282 -15.9371 -15.9224 -15.8664 -15.8342 -15.7726
   -15.7200 -15.7200  -1.8176   1.6608   5.8372   5.8372   9.2529  10.1936
    17.2292  17.2292

     occupation numbers 
     1.0000   1.0000   1.0000   1.0000   1.0000   1.0000   1.0000   1.0000
     1.0000   1.0000   1.0000   1.0000   1.0000   1.0000   0.0050   0.0000
     0.0000   0.0000

          k = 0.5983 0.0544-0.0544 (  1510 PWs)   bands (ev):

   -16.0837 -16.0797 -16.0120 -15.9512 -15.9081 -15.8522 -15.8486 -15.7900
   -15.7159 -15.7124  -1.2964   0.9899   5.4376   5.7506   9.4638  10.1766
    17.2608  17.5494

     occupation numbers 
     1.0000   1.0000   1.0000   1.0000   1.0000   1.0000   1.0000   1.0000
     1.0000   1.0000   1.0000   1.0000   1.0000   1.0000   0.0001   0.0000
     0.0000   0.0000

          k =-0.0544-0.5983 0.5983 (  1509 PWs)   bands (ev):

   -16.0928 -16.0816 -15.9931 -15.9513 -15.8945 -15.8636 -15.8499 -15.8097
   -15.7132 -15.7032  -0.7450   0.3942   4.8137   5.8048   9.6264  11.0856
    16.9360  17.2817

     occupation numbers 
     1.0000   1.0000   1.0000   1.0000   1.0000   1.0000   1.0000   1.0000
     1.0000   1.0000   1.0000   1.0000   1.0000   1.0000   0.0000   0.0000
     0.0000   0.0000

          k = 0.0000-0.5439 0.5439 (  1502 PWs)   bands (ev):

   -16.0995 -16.0826 -15.9865 -15.9289 -15.8891 -15.8715 -15.8696 -15.8160
   -15.7121 -15.6969  -0.6158   0.2940   4.3285   5.9959   9.8077  12.5137
    16.4176  16.5785

     occupation numbers 
     1.0000   1.0000   1.0000   1.0000   1.0000   1.0000   1.0000   1.0000
     1.0000   1.0000   1.0000   1.0000   1.0000   1.0000   0.0000   0.0000
     0.0000   0.0000

          k = 0.6527 0.0000 0.0000 (  1516 PWs)   bands (ev):

   -16.0809 -16.0809 -16.0038 -15.9729 -15.8930 -15.8630 -15.8314 -15.7995
   -15.7137 -15.7137  -0.7916   0.3766   5.6282   5.6282   9.3087   9.6218
    18.3870  18.3870

     occupation numbers 
     1.0000   1.0000   1.0000   1.0000   1.0000   1.0000   1.0000   1.0000
     1.0000   1.0000   1.0000   1.0000   1.0000   1.0000   0.0019   0.0000
     0.0000   0.0000

          k = 0.0000-0.6527 0.6527 (  1522 PWs)   bands (ev):

   -16.0855 -16.0816 -15.9887 -15.9802 -15.8792 -15.8772 -15.8229 -15.8151
   -15.7127 -15.7094  -0.2581  -0.1662   5.3188   5.6467   9.4756   9.9090
    18.1536  18.2614

     occupation numbers 
     1.0000   1.0000   1.0000   1.0000   1.0000   1.0000   1.0000   1.0000
     1.0000   1.0000   1.0000   1.0000   1.0000   1.0000   0.0001   0.0000
     0.0000   0.0000

          k = 0.2176 0.1088 0.0000 (  1493 PWs)   bands (ev):

   -16.0639 -16.0566 -16.0424 -15.9863 -15.9682 -15.8203 -15.7840 -15.7608
   -15.7554 -15.7336  -3.7629   5.3759   7.1596   8.0123  11.0347  11.1399
    12.8529  13.5014

     occupation numbers 
     1.0000   1.0000   1.0000   1.0000   1.0000   1.0000   1.0000   1.0000
     1.0000   1.0000   1.0000   1.0000   1.0000   1.0009   0.0000   0.0000
     0.0000   0.0000

          k = 0.2720 0.1632-0.0544 (  1495 PWs)   bands (ev):

   -16.0713 -16.0642 -16.0338 -15.9764 -15.9549 -15.8321 -15.7935 -15.7715
   -15.7430 -15.7268  -3.4014   4.1925   6.5608   7.7415  10.9403  11.6179
    13.3251  13.8408

     occupation numbers 
     1.0000   1.0000   1.0000   1.0000   1.0000   1.0000   1.0000   1.0000
     1.0000   1.0000   1.0000   1.0000   1.0000   1.0000   0.0000   0.0000
     0.0000   0.0000

          k = 0.3264 0.2176-0.1088 (  1503 PWs)   bands (ev):

   -16.0777 -16.0705 -16.0233 -15.9671 -15.9452 -15.8388 -15.8014 -15.7857
   -15.7326 -15.7210  -2.9209   2.9617   6.1959   7.4094  10.7183  12.0818
    13.4714  14.3423

     occupation numbers 
     1.0000   1.0000   1.0000   1.0000   1.0000   1.0000   1.0000   1.0000
     1.0000   1.0000   1.0000   1.0000   1.0000   1.0000   0.0000   0.0000
     0.0000   0.0000

          k = 0.3807 0.2720-0.1632 (  1497 PWs)   bands (ev):

   -16.0825 -16.0741 -16.0138 -15.9587 -15.9415 -15.8388 -15.8081 -15.7997
   -15.7258 -15.7167  -2.3775   1.8766   5.9860   7.1371  10.5391  12.2164
    13.4439  15.2775

     occupation numbers 
     1.0000   1.0000   1.0000   1.0000   1.0000   1.0000   1.0000   1.0000
     1.0000   1.0000   1.0000   1.0000   1.0000   1.0000   0.0000   0.0000
     0.0000   0.0000

          k =-0.2720-0.3807 0.4895 (  1503 PWs)   bands (ev):

   -16.0851 -16.0756 -16.0082 -15.9517 -15.9433 -15.8330 -15.8178 -15.8062
   -15.7227 -15.7142  -1.9387   1.1578   5.8913   6.9861  10.4435  12.2055
    13.4010  16.2639

     occupation numbers 
     1.0000   1.0000   1.0000   1.0000   1.0000   1.0000   1.0000   1.0000
     1.0000   1.0000   1.0000   1.0000   1.0000   1.0000   0.0000   0.0000
     0.0000   0.0000

          k = 0.3264 0.1088 0.0000 (  1492 PWs)   bands (ev):

   -16.0703 -16.0656 -16.0405 -15.9712 -15.9391 -15.8554 -15.7903 -15.7630
   -15.7414 -15.7292  -3.2729   4.1167   6.4300   7.1016  10.4653  11.7661
    13.7420  14.2772

     occupation numbers 
     1.0000   1.0000   1.0000   1.0000   1.0000   1.0000   1.0000   1.0000
     1.0000   1.0000   1.0000   1.0000   1.0000   1.0000   0.0000   0.0000
     0.0000   0.0000

          k = 0.3807 0.1632-0.0544 (  1501 PWs)   bands (ev):

   -16.0789 -16.0721 -16.0272 -15.9604 -15.9269 -15.8664 -15.8016 -15.7772
   -15.7309 -15.7206  -2.8291   3.1119   5.8542   6.8303  10.7616  11.9720
    13.5058  14.7144

     occupation numbers 
     1.0000   1.0000   1.0000   1.0000   1.0000   1.0000   1.0000   1.0000
     1.0000   1.0000   1.0000   1.0000   1.0000   1.0000   0.0000   0.0000
     0.0000   0.0000

          k = 0.4351 0.2176-0.1088 (  1499 PWs)   bands (ev):

   -16.0871 -16.0761 -16.0126 -15.9499 -15.9211 -15.8696 -15.8134 -15.7933
   -15.7237 -15.7119  -2.2955   2.0999   5.4472   6.5939  10.8128  12.5074
    13.5662  14.8120

     occupation numbers 
     1.0000   1.0000   1.0000   1.0000   1.0000   1.0000   1.0000   1.0000
     1.0000   1.0000   1.0000   1.0000   1.0000   1.0000   0.0000   0.0000
     0.0000   0.0000

          k =-0.2176-0.4351 0.5439 (  1501 PWs)   bands (ev):

   -16.0924 -16.0788 -16.0007 -15.9407 -15.9230 -15.8641 -15.8260 -15.8057
   -15.7191 -15.7061  -1.7868   1.2933   5.1675   6.5009  10.8159  12.5509
    14.3300  14.9746

     occupation numbers 
     1.0000   1.0000   1.0000   1.0000   1.0000   1.0000   1.0000   1.0000
     1.0000   1.0000   1.0000   1.0000   1.0000   1.0000   0.0000   0.0000
     0.0000   0.0000

          k =-0.1632-0.3807 0.4895 (  1509 PWs)   bands (ev):

   -16.0938 -16.0804 -15.9948 -15.9384 -15.9262 -15.8550 -15.8344 -15.8118
   -15.7166 -15.7047  -1.6110   1.0453   5.0102   6.5748  10.8919  12.4626
    14.4024  16.0390

     occupation numbers 
     1.0000   1.0000   1.0000   1.0000   1.0000   1.0000   1.0000   1.0000
     1.0000   1.0000   1.0000   1.0000   1.0000   1.0000   0.0000   0.0000
     0.0000   0.0000

          k =-0.1088-0.3264 0.4351 (  1508 PWs)   bands (ev):

   -16.0910 -16.0808 -15.9968 -15.9482 -15.9248 -15.8542 -15.8244 -15.8125
   -15.7163 -15.7084  -1.9545   1.5475   5.0014   6.7982  11.0461  12.4297
    14.1896  15.2911

     occupation numbers 
     1.0000   1.0000   1.0000   1.0000   1.0000   1.0000   1.0000   1.0000
     1.0000   1.0000   1.0000   1.0000   1.0000   1.0000   0.0000   0.0000
     0.0000   0.0000

          k =-0.0544-0.2720 0.3807 (  1503 PWs)   bands (ev):

   -16.0843 -16.0796 -16.0066 -15.9591 -15.9291 -15.8530 -15.8090 -15.8044
   -15.7195 -15.7155  -2.4939   2.4394   5.1939   7.1299  11.2420  12.3195
    13.7248  14.5114

     occupation numbers 
     1.0000   1.0000   1.0000   1.0000   1.0000   1.0000   1.0000   1.0000
     1.0000   1.0000   1.0000   1.0000   1.0000   1.0000   0.0000   0.0000
     0.0000   0.0000

          k = 0.0000-0.2176 0.3264 (  1506 PWs)   bands (ev):

   -16.0767 -16.0744 -16.0209 -15.9683 -15.9404 -15.8449 -15.8024 -15.7846
   -15.7307 -15.7208  -3.0013   3.3905   5.6839   7.4941  11.3648  11.8164
    13.6048  13.9158

     occupation numbers 
     1.0000   1.0000   1.0000   1.0000   1.0000   1.0000   1.0000   1.0000
     1.0000   1.0000   1.0000   1.0000   1.0000   1.0000   0.0000   0.0000
     0.0000   0.0000

          k = 0.4351 0.1088 0.0000 (  1498 PWs)   bands (ev):

   -16.0764 -16.0745 -16.0330 -15.9495 -15.9062 -15.8927 -15.8095 -15.7677
   -15.7273 -15.7234  -2.5977   2.8479   5.8631   6.3235  10.0479  11.3141
    14.5882  15.7608

     occupation numbers 
     1.0000   1.0000   1.0000   1.0000   1.0000   1.0000   1.0000   1.0000
     1.0000   1.0000   1.0000   1.0000   1.0000   1.0000   0.0000   0.0000
     0.0000   0.0000

          k = 0.4895 0.1632-0.0544 (  1506 PWs)   bands (ev):

   -16.0862 -16.0789 -16.0153 -15.9373 -15.9034 -15.8943 -15.8229 -15.7867
   -15.7199 -15.7124  -2.0862   2.0209   5.3018   6.0938  10.3895  11.6690
    14.2758  16.1143

     occupation numbers 
     1.0000   1.0000   1.0000   1.0000   1.0000   1.0000   1.0000   1.0000
     1.0000   1.0000   1.0000   1.0000   1.0000   1.0000   0.0000   0.0000
     0.0000   0.0000

          k =-0.1632-0.4895 0.5983 (  1504 PWs)   bands (ev):

   -16.0946 -16.0817 -15.9979 -15.9259 -15.9053 -15.8896 -15.8371 -15.8045
   -15.7154 -15.7030  -1.5422   1.2610   4.8035   6.0206  10.5070  12.7679
    13.9695  16.0163

     occupation numbers 
     1.0000   1.0000   1.0000   1.0000   1.0000   1.0000   1.0000   1.0000
     1.0000   1.0000   1.0000   1.0000   1.0000   1.0000   0.0000   0.0000
     0.0000   0.0000

          k =-0.1088-0.4351 0.5439 (  1510 PWs)   bands (ev):

   -16.0991 -16.0836 -15.9870 -15.9190 -15.9036 -15.8865 -15.8495 -15.8150
   -15.7126 -15.6984  -1.2164   0.8567   4.4641   6.1214  10.6451  13.6128
    14.3341  15.6519

     occupation numbers 
     1.0000   1.0000   1.0000   1.0000   1.0000   1.0000   1.0000   1.0000
     1.0000   1.0000   1.0000   1.0000   1.0000   1.0000   0.0000   0.0000
     0.0000   0.0000

          k =-0.0544-0.3807 0.4895 (  1511 PWs)   bands (ev):

   -16.0985 -16.0843 -15.9849 -15.9284 -15.9064 -15.8741 -15.8499 -15.8173
   -15.7117 -15.6996  -1.4492   1.1468   4.3564   6.3721  10.8776  13.4766
    14.7346  15.6615

     occupation numbers 
     1.0000   1.0000   1.0000   1.0000   1.0000   1.0000   1.0000   1.0000
     1.0000   1.0000   1.0000   1.0000   1.0000   1.0000   0.0000   0.0000
     0.0000   0.0000

          k = 0.0000-0.3264 0.4351 (  1501 PWs)   bands (ev):

   -16.0930 -16.0834 -15.9916 -15.9463 -15.9143 -15.8650 -15.8295 -15.8144
   -15.7130 -15.7066  -1.9726   1.8034   4.5686   6.7332  11.1586  13.1126
    13.8285  15.2886

     occupation numbers 
     1.0000   1.0000   1.0000   1.0000   1.0000   1.0000   1.0000   1.0000
     1.0000   1.0000   1.0000   1.0000   1.0000   1.0000   0.0000   0.0000
     0.0000   0.0000

          k = 0.5439 0.1088 0.0000 (  1509 PWs)   bands (ev):

   -16.0818 -16.0813 -16.0175 -15.9299 -15.9229 -15.8719 -15.8349 -15.7836
   -15.7162 -15.7155  -1.7502   1.5887   5.4967   5.7606   9.8346  10.6235
    15.8414  17.1884

     occupation numbers 
     1.0000   1.0000   1.0000   1.0000   1.0000   1.0000   1.0000   1.0000
     1.0000   1.0000   1.0000   1.0000   1.0000   1.0000   0.0000   0.0000
     0.0000   0.0000

          k =-0.1088-0.5439 0.6527 (  1507 PWs)   bands (ev):

   -16.0913 -16.0838 -15.9968 -15.9359 -15.9096 -15.8642 -15.8499 -15.8047
   -15.7122 -15.7053  -1.1965   0.9201   4.9432   5.6437  10.1566  11.2483
    15.5118  17.2788

     occupation numbers 
     1.0000   1.0000   1.0000   1.0000   1.0000   1.0000   1.0000   1.0000
     1.0000   1.0000   1.0000   1.0000   1.0000   1.0000   0.0000   0.0000
     0.0000   0.0000

          k =-0.0544-0.4895 0.5983 (  1508 PWs)   bands (ev):

   -16.0987 -16.0852 -15.9826 -15.9262 -15.8985 -15.8716 -15.8636 -15.8187
   -15.7101 -15.6978  -0.7632   0.4628   4.4232   5.7443  10.3116  12.5842
    15.1958  16.3934

     occupation numbers 
     1.0000   1.0000   1.0000   1.0000   1.0000   1.0000   1.0000   1.0000
     1.0000   1.0000   1.0000   1.0000   1.0000   1.0000   0.0000   0.0000
     0.0000   0.0000

          k = 0.0000-0.4351 0.5439 (  1513 PWs)   bands (ev):

   -16.1014 -16.0855 -15.9802 -15.9043 -15.9010 -15.8886 -15.8666 -15.8204
   -15.7099 -15.6957  -0.9395   0.6595   4.1795   5.9991  10.5569  14.1779
    14.8504  15.0480

     occupation numbers 
     1.0000   1.0000   1.0000   1.0000   1.0000   1.0000   1.0000   1.0000
     1.0000   1.0000   1.0000   1.0000   1.0000   1.0000   0.0000   0.0000
     0.0000   0.0000

          k =-0.0544-0.5983 0.7071 (  1513 PWs)   bands (ev):

   -16.0851 -16.0850 -15.9942 -15.9644 -15.8936 -15.8636 -15.8384 -15.8082
   -15.7101 -15.7101  -0.7498   0.3754   5.3502   5.4357   9.8519  10.1150
    17.1496  18.0043

     occupation numbers 
     1.0000   1.0000   1.0000   1.0000   1.0000   1.0000   1.0000   1.0000
     1.0000   1.0000   1.0000   1.0000   1.0000   1.0000   0.0000   0.0000
     0.0000   0.0000

          k = 0.0000-0.5439 0.6527 (  1511 PWs)   bands (ev):

   -16.0931 -16.0856 -15.9796 -15.9583 -15.8827 -15.8766 -15.8422 -15.8224
   -15.7093 -15.7026  -0.3201  -0.0286   4.8178   5.4956  10.0800  11.0912
    16.7990  16.8079

     occupation numbers 
     1.0000   1.0000   1.0000   1.0000   1.0000   1.0000   1.0000   1.0000
     1.0000   1.0000   1.0000   1.0000   1.0000   1.0000   0.0000   0.0000
     0.0000   0.0000

          k = 0.4351 0.2176 0.0000 (  1505 PWs)   bands (ev):

   -16.0835 -16.0821 -16.0105 -15.9500 -15.9131 -15.8786 -15.8130 -15.7951
   -15.7174 -15.7157  -2.3555   2.3848   5.1661   6.5235  11.4115  11.9937
    13.1606  15.5601

     occupation numbers 
     1.0000   1.0000   1.0000   1.0000   1.0000   1.0000   1.0000   1.0000
     1.0000   1.0000   1.0000   1.0000   1.0000   1.0000   0.0000   0.0000
     0.0000   0.0000

          k =-0.2176-0.4351 0.6527 (  1505 PWs)   bands (ev):

   -16.0924 -16.0846 -15.9939 -15.9387 -15.9050 -15.8837 -15.8283 -15.8108
   -15.7128 -15.7062  -1.8114   1.6039   4.7591   6.1973  11.6701  12.3818
    13.2861  15.9641

     occupation numbers 
     1.0000   1.0000   1.0000   1.0000   1.0000   1.0000   1.0000   1.0000
     1.0000   1.0000   1.0000   1.0000   1.0000   1.0000   0.0000   0.0000
     0.0000   0.0000

          k =-0.1632-0.3807 0.5983 (  1509 PWs)   bands (ev):

   -16.0974 -16.0856 -15.9838 -15.9287 -15.9046 -15.8814 -15.8437 -15.8182
   -15.7111 -15.7003  -1.3531   1.0000   4.5834   6.0022  11.7042  12.3043
    14.4988  15.7431

     occupation numbers 
     1.0000   1.0000   1.0000   1.0000   1.0000   1.0000   1.0000   1.0000
     1.0000   1.0000   1.0000   1.0000   1.0000   1.0000   0.0000   0.0000
     0.0000   0.0000

          k =-0.1632-0.4895 0.7071 (  1506 PWs)   bands (ev):

   -16.0900 -16.0876 -15.9950 -15.9250 -15.9128 -15.8831 -15.8378 -15.8067
   -15.7094 -15.7077  -1.5577   1.3724   4.8792   5.6868  11.1797  11.7263
    13.9178  16.9833

     occupation numbers 
     1.0000   1.0000   1.0000   1.0000   1.0000   1.0000   1.0000   1.0000
     1.0000   1.0000   1.0000   1.0000   1.0000   1.0000   0.0000   0.0000
     0.0000   0.0000

          k =-0.1088-0.4351 0.6527 (  1510 PWs)   bands (ev):

   -16.0970 -16.0896 -15.9766 -15.9175 -15.9111 -15.8778 -15.8543 -15.8231
   -15.7067 -15.6998  -1.0296   0.7772   4.5442   5.4599  11.5047  12.7765
    13.5751  16.1814

     occupation numbers 
     1.0000   1.0000   1.0000   1.0000   1.0000   1.0000   1.0000   1.0000
     1.0000   1.0000   1.0000   1.0000   1.0000   1.0000   0.0000   0.0000
     0.0000   0.0000

          k =-0.0544-0.3807 0.5983 (  1508 PWs)   bands (ev):

   -16.0999 -16.0899 -15.9702 -15.9135 -15.9029 -15.8833 -15.8627 -15.8278
   -15.7061 -15.6969  -0.8612   0.6006   4.3431   5.5118  11.7129  13.2593
    14.3543  14.6257

     occupation numbers 
     1.0000   1.0000   1.0000   1.0000   1.0000   1.0000   1.0000   1.0000
     1.0000   1.0000   1.0000   1.0000   1.0000   1.0000   0.0000   0.0000
     0.0000   0.0000

          k = 0.0000-0.3264 0.5439 (  1508 PWs)   bands (ev):

   -16.0978 -16.0887 -15.9775 -15.9235 -15.8968 -15.8899 -15.8503 -15.8225
   -15.7076 -15.6997  -1.2709   1.0402   4.3864   5.7868  11.9894  12.8958
    13.3705  15.9683

     occupation numbers 
     1.0000   1.0000   1.0000   1.0000   1.0000   1.0000   1.0000   1.0000
     1.0000   1.0000   1.0000   1.0000   1.0000   1.0000   0.0000   0.0000
     0.0000   0.0000

          k =-0.0544-0.4895 0.7071 (  1511 PWs)   bands (ev):

   -16.0928 -16.0917 -15.9729 -15.9449 -15.8963 -15.8665 -15.8534 -15.8269
   -15.7042 -15.7032  -0.6400   0.3532   4.8545   5.1193  11.1520  11.3414
    15.1536  16.4859

     occupation numbers 
     1.0000   1.0000   1.0000   1.0000   1.0000   1.0000   1.0000   1.0000
     1.0000   1.0000   1.0000   1.0000   1.0000   1.0000   0.0000   0.0000
     0.0000   0.0000

          k = 0.0000-0.4351 0.6527 (  1509 PWs)   bands (ev):

   -16.0983 -16.0919 -15.9622 -15.9345 -15.8906 -15.8778 -15.8600 -15.8355
   -15.7039 -15.6979  -0.3925   0.1343   4.5041   5.1624  11.4263  12.6845
    14.7920  14.8827

     occupation numbers 
     1.0000   1.0000   1.0000   1.0000   1.0000   1.0000   1.0000   1.0000
     1.0000   1.0000   1.0000   1.0000   1.0000   1.0000   0.0000   0.0000
     0.0000   0.0000

          k =-0.0544-0.3807 0.7071 (  1505 PWs)   bands (ev):

   -16.0982 -16.0946 -15.9559 -15.9282 -15.8990 -15.8742 -15.8634 -15.8395
   -15.7015 -15.6981  -0.5046   0.2748   4.5204   4.9978  12.8467  12.9115
    13.2614  14.5432

     occupation numbers 
     1.0000   1.0000   1.0000   1.0000   1.0000   1.0000   1.0000   1.0000
     1.0000   1.0000   1.0000   1.0000   1.0000   1.0000   0.0000   0.0000
     0.0000   0.0000

     the Fermi energy is     8.8591 ev

!    total energy              =    -426.37974536 Ry
     estimated scf accuracy    <          1.8E-10 Ry
     smearing contrib. (-TS)   =       0.00012134 Ry
     internal energy E=F+TS    =    -426.37986670 Ry

     The total energy is F=E-TS. E is the sum of the following terms:
     one-electron contribution =    -274.60743771 Ry
     hartree contribution      =     163.44777874 Ry
     xc contribution           =    -115.32244224 Ry
     ewald contribution        =    -199.89776550 Ry

     convergence has been achieved in   8 iterations

     Forces acting on atoms (cartesian axes, Ry/au):

     atom    1 type  1   force =    -0.00000000    0.00000000    0.00000000
     atom    2 type  1   force =     0.00000000    0.00000000    0.00000000
     The non-local contrib.  to forces
     atom    1 type  1   force =    -0.00000000    0.00000000    0.00000000
     atom    2 type  1   force =     0.00000000   -0.00000000   -0.00000000
     The ionic contribution  to forces
     atom    1 type  1   force =    -0.00000000   -0.00000000    0.00000000
     atom    2 type  1   force =    -0.00000000   -0.00000000   -0.00000000
     The local contribution  to forces
     atom    1 type  1   force =     0.00000000    0.00000000    0.00000000
     atom    2 type  1   force =     0.00000000    0.00000000    0.00000000
     The core correction contribution to forces
     atom    1 type  1   force =     0.00000000    0.00000000    0.00000000
     atom    2 type  1   force =     0.00000000    0.00000000    0.00000000
     The Hubbard contrib.    to forces
     atom    1 type  1   force =     0.00000000    0.00000000    0.00000000
     atom    2 type  1   force =     0.00000000    0.00000000    0.00000000
     The SCF correction term to forces
     atom    1 type  1   force =    -0.00000000    0.00000000    0.00000000
     atom    2 type  1   force =    -0.00000000    0.00000000    0.00000000

     Total force =     0.000000     Total SCF correction =     0.000000


     Computing stress (Cartesian axis) and pressure

          total   stress  (Ry/bohr**3)                   (kbar)     P=       32.05
   0.00021789   0.00000000   0.00000000           32.05        0.00        0.00
   0.00000000   0.00021789   0.00000000            0.00       32.05        0.00
   0.00000000   0.00000000   0.00021789            0.00        0.00       32.05

     kinetic stress (kbar)  10432.42      0.00      0.00
                                0.00  10432.42      0.00
                                0.00      0.00  10432.42

     local   stress (kbar)   2655.00     -0.00     -0.00
                               -0.00   2655.00     -0.00
                               -0.00     -0.00   2655.00

     nonloc. stress (kbar)   3125.91     -0.00     -0.00
                               -0.00   3125.91     -0.00
                               -0.00     -0.00   3125.91

     hartree stress (kbar)  27196.87      0.00      0.00
                                0.00  27196.87      0.00
                                0.00      0.00  27196.87

     exc-cor stress (kbar)  20350.56     -0.00      0.00
                               -0.00  20350.56      0.00
                                0.00      0.00  20350.56

     corecor stress (kbar) -30466.74     -0.00      0.00
                               -0.00 -30466.74      0.00
                                0.00      0.00 -30466.74

     ewald   stress (kbar) -33261.96     -0.00     -0.00
                               -0.00 -33261.96     -0.00
                               -0.00     -0.00 -33261.96

     hubbard stress (kbar)      0.00      0.00      0.00
                                0.00      0.00      0.00
                                0.00      0.00      0.00

     DFT-D   stress (kbar)      0.00      0.00      0.00
                                0.00      0.00      0.00
                                0.00      0.00      0.00

     XDM     stress (kbar)      0.00      0.00      0.00
                                0.00      0.00      0.00
                                0.00      0.00      0.00

     dft-nl  stress (kbar)      0.00      0.00      0.00
                                0.00      0.00      0.00
                                0.00      0.00      0.00

     TS-vdW  stress (kbar)      0.00      0.00      0.00
                                0.00      0.00      0.00
                                0.00      0.00      0.00

     MDB     stress (kbar)      0.00      0.00      0.00
                                0.00      0.00      0.00
                                0.00      0.00      0.00

     3D-RISM stress (kbar)      0.00      0.00      0.00
                                0.00      0.00      0.00
                                0.00      0.00      0.00


     Writing all to output data dir ./out/aiida.save/ :
     XML data file, charge density, pseudopotentials, collected wavefunctions

     init_run     :      6.08s CPU      3.40s WALL (       1 calls)
     electrons    :    169.64s CPU     83.90s WALL (       1 calls)
     forces       :      1.53s CPU      0.66s WALL (       1 calls)
     stress       :      6.77s CPU      3.63s WALL (       1 calls)

     Called by init_run:
     wfcinit      :      5.58s CPU      2.89s WALL (       1 calls)
     wfcinit:atom :      0.09s CPU      0.05s WALL (      84 calls)
     wfcinit:wfcr :      4.87s CPU      2.54s WALL (      84 calls)
     potinit      :      0.07s CPU      0.07s WALL (       1 calls)
     hinit0       :      0.25s CPU      0.25s WALL (       1 calls)

     Called by electrons:
     c_bands      :    139.44s CPU     66.97s WALL (       9 calls)
     sum_band     :     28.08s CPU     14.82s WALL (       9 calls)
     v_of_rho     :      0.57s CPU      0.57s WALL (       9 calls)
     v_h          :      0.03s CPU      0.03s WALL (       9 calls)
     v_xc         :      0.78s CPU      0.69s WALL (      11 calls)
     newd         :      1.61s CPU      1.62s WALL (       9 calls)
     mix_rho      :      0.06s CPU      0.06s WALL (       9 calls)

     Called by c_bands:
     init_us_2    :      4.20s CPU      1.81s WALL (    1764 calls)
     cegterg      :    132.17s CPU     63.44s WALL (     756 calls)

     Called by sum_band:
     sum_band:wei :      0.07s CPU      0.04s WALL (       9 calls)
     sum_band:loo :     23.95s CPU     12.37s WALL (       9 calls)
     sum_band:buf :      0.22s CPU      0.08s WALL (     756 calls)
     sum_band:ini :      1.79s CPU      0.81s WALL (     756 calls)
     sum_band:cal :      1.51s CPU      0.80s WALL (     756 calls)
     sum_band:bec :      0.06s CPU      0.02s WALL (     756 calls)
     addusdens    :      3.95s CPU      2.32s WALL (       9 calls)
                                        0.00s GPU  (       9 calls)
     addusd:skk   :      0.01s CPU      0.01s WALL (       9 calls)
                                        0.00s GPU  (       9 calls)

     Called by *egterg:
     cdiaghg      :      5.19s CPU      1.92s WALL (    2350 calls)
     cegterg:over :      4.22s CPU      1.20s WALL (    1678 calls)
     cegterg:upda :      2.47s CPU      0.80s WALL (    1678 calls)
     cegterg:last :      4.25s CPU      1.19s WALL (    1414 calls)
     h_psi        :    113.69s CPU     58.60s WALL (    2518 calls)
     s_psi        :      3.06s CPU      0.95s WALL (    2518 calls)
     g_psi        :      0.79s CPU      0.24s WALL (    1678 calls)

     Called by h_psi:
     h_psi:calbec :      4.11s CPU      2.68s WALL (    2518 calls)
     vloc_psi     :    105.69s CPU     54.72s WALL (    2518 calls)
                                        0.00s GPU  (    2518 calls)
     add_vuspsi   :      3.40s CPU      1.02s WALL (    2518 calls)

     General routines
     calbec       :      7.57s CPU      4.31s WALL (    4702 calls)
     fft          :      0.44s CPU      0.40s WALL (     141 calls)
     ffts         :      0.03s CPU      0.01s WALL (      18 calls)
     fftw         :    111.74s CPU     58.56s WALL (   83552 calls)
     interpolate  :      0.03s CPU      0.03s WALL (       9 calls)

     Parallel routines

     PWSCF        :   3m 4.35s CPU   1m31.85s WALL


   This run was terminated on:   0:51:25  25Dec2025            

=------------------------------------------------------------------------------=
   JOB DONE.
=------------------------------------------------------------------------------=
