
     Program PWSCF v.7.4.1 starts on 25Dec2025 at  0:27:30 

     This program is part of the open-source Quantum ESPRESSO suite
     for quantum simulation of materials; please cite
         "P. Giannozzi et al., J. Phys.:Condens. Matter 21 395502 (2009);
         "P. Giannozzi et al., J. Phys.:Condens. Matter 29 465901 (2017);
         "P. Giannozzi et al., J. Chem. Phys. 152 154105 (2020);
          URL http://www.quantum-espresso.org", 
     in publications or presentations arising from this work. More details at
     http://www.quantum-espresso.org/quote

     Parallel version (MPI), running on     1 processors

     MPI processes distributed on     1 nodes
     500 MiB available memory on the printing compute node when the environment starts

     Waiting for input...
     Reading input from standard input
Warning: card &CELL ignored

     Current dimensions of program PWSCF are:
     Max number of different atomic species (ntypx) = 10
     Max number of k-points (npk) =  40000
     Max angular momentum in pseudopotentials (lmaxx) =  4
     Message from routine setup:
     using ibrav=0 with symmetry is DISCOURAGED, use correct ibrav instead

     Subspace diagonalization in iterative solution of the eigenvalue problem:
     a serial algorithm will be used


     G-vector sticks info
     --------------------
     sticks:   dense  smooth     PW     G-vecs:    dense   smooth      PW
     Sum        1429     723    215                35715    12691    2157

     Using Slab Decomposition



     bravais-lattice index     =            0
     lattice parameter (alat)  =       7.7006  a.u.
     unit-cell volume          =     309.9720 (a.u.)^3
     number of atoms/cell      =            2
     number of atomic types    =            1
     number of electrons       =        28.00
     number of Kohn-Sham states=           18
     kinetic-energy cutoff     =      45.0000  Ry
     charge density cutoff     =     360.0000  Ry
     scf convergence threshold =      4.0E-10
     mixing beta               =       0.4000
     number of iterations used =            8  plain     mixing
     Exchange-correlation= SLA  PW   PSX  PSC
                           (   1   4  10   8   0   0   0)

     celldm(1)=   7.700556  celldm(2)=   0.000000  celldm(3)=   0.000000
     celldm(4)=   0.000000  celldm(5)=   0.000000  celldm(6)=   0.000000

     crystal axes: (cart. coord. in units of alat)
               a(1) = (   0.000000   0.707107   0.707107 )  
               a(2) = (   0.678823   0.000000   0.707107 )  
               a(3) = (   0.678823   0.707107   0.000000 )  

     reciprocal axes: (cart. coord. in units 2 pi/alat)
               b(1) = ( -0.736570  0.707107  0.707107 )  
               b(2) = (  0.736570 -0.707107  0.707107 )  
               b(3) = (  0.736570  0.707107 -0.707107 )  


     PseudoPot. # 1 for Ge read from file:
     ./pseudo/ge_pbesol_v1.4.uspp.F.UPF
     MD5 check sum: 7bed0412183f5e553a4d27ec7023354d
     Pseudo is Ultrasoft + core correction, Zval = 14.0
     Generated by new atomic code, or converted to UPF format
     Using radial grid of  873 points,  6 beta functions with: 
                l(1) =   0
                l(2) =   0
                l(3) =   1
                l(4) =   1
                l(5) =   2
                l(6) =   2
     Q(r) pseudized with  8 coefficients,  rinner =    1.400   1.400   1.400
                                                       1.400   1.400

     atomic species   valence    mass     pseudopotential
     Ge               14.00    72.64000     Ge( 1.00)

     16 Sym. Ops., with inversion, found ( 8 have fractional translation)


                                    s                        frac. trans.

      isym =  1     identity                                     

 cryst.   s( 1) = (     1          0          0      )
                  (     0          1          0      )
                  (     0          0          1      )

 cart.    s( 1) = (  1.0000000  0.0000000  0.0000000 )
                  (  0.0000000  1.0000000  0.0000000 )
                  (  0.0000000  0.0000000  1.0000000 )


      isym =  2     180 deg rotation - cart. axis [0,0,1]        

 cryst.   s( 2) = (     0          1         -1      )
                  (     1          0         -1      )
                  (     0          0         -1      )

 cart.    s( 2) = ( -1.0000000  0.0000000  0.0000000 )
                  (  0.0000000 -1.0000000  0.0000000 )
                  (  0.0000000  0.0000000  1.0000000 )


      isym =  3     180 deg rotation - cart. axis [0,1,0]        

 cryst.   s( 3) = (     0         -1          1      )
                  (     0         -1          0      )
                  (     1         -1          0      )

 cart.    s( 3) = ( -1.0000000  0.0000000  0.0000000 )
                  (  0.0000000  1.0000000  0.0000000 )
                  (  0.0000000  0.0000000 -1.0000000 )


      isym =  4     180 deg rotation - cart. axis [1,0,0]        

 cryst.   s( 4) = (    -1          0          0      )
                  (    -1          0          1      )
                  (    -1          1          0      )

 cart.    s( 4) = (  1.0000000  0.0000000  0.0000000 )
                  (  0.0000000 -1.0000000  0.0000000 )
                  (  0.0000000  0.0000000 -1.0000000 )


      isym =  5     180 deg rotation - cart. axis [0,1,1]        

 cryst.   s( 5) = (     1          0          0      )    f =( -0.2500000 )
                  (     1         -1          0      )       ( -0.2500000 )
                  (     1          0         -1      )       ( -0.2500000 )

 cart.    s( 5) = ( -1.0000000  0.0000000  0.0000000 )    f =( -0.3394113 )
                  (  0.0000000  0.0000000  1.0000000 )       ( -0.3535534 )
                  (  0.0000000  1.0000000  0.0000000 )       ( -0.3535534 )


      isym =  6     180 deg rotation - cart. axis [0,1,-1]       

 cryst.   s( 6) = (    -1          0          0      )    f =( -0.2500000 )
                  (     0          0         -1      )       ( -0.2500000 )
                  (     0         -1          0      )       ( -0.2500000 )

 cart.    s( 6) = ( -1.0000000  0.0000000  0.0000000 )    f =( -0.3394113 )
                  (  0.0000000  0.0000000 -1.0000000 )       ( -0.3535534 )
                  (  0.0000000 -1.0000000  0.0000000 )       ( -0.3535534 )


      isym =  7      90 deg rotation - cart. axis [-1,0,0]       

 cryst.   s( 7) = (     0         -1          1      )    f =( -0.2500000 )
                  (     0          0          1      )       ( -0.2500000 )
                  (    -1          0          1      )       ( -0.2500000 )

 cart.    s( 7) = (  1.0000000  0.0000000  0.0000000 )    f =( -0.3394113 )
                  (  0.0000000  0.0000000  1.0000000 )       ( -0.3535534 )
                  (  0.0000000 -1.0000000  0.0000000 )       ( -0.3535534 )


      isym =  8      90 deg rotation - cart. axis [1,0,0]        

 cryst.   s( 8) = (     0          1         -1      )    f =( -0.2500000 )
                  (    -1          1          0      )       ( -0.2500000 )
                  (     0          1          0      )       ( -0.2500000 )

 cart.    s( 8) = (  1.0000000  0.0000000  0.0000000 )    f =( -0.3394113 )
                  (  0.0000000  0.0000000 -1.0000000 )       ( -0.3535534 )
                  (  0.0000000  1.0000000  0.0000000 )       ( -0.3535534 )


      isym =  9     inversion                                    

 cryst.   s( 9) = (    -1          0          0      )    f =( -0.2500000 )
                  (     0         -1          0      )       ( -0.2500000 )
                  (     0          0         -1      )       ( -0.2500000 )

 cart.    s( 9) = ( -1.0000000  0.0000000  0.0000000 )    f =( -0.3394113 )
                  (  0.0000000 -1.0000000  0.0000000 )       ( -0.3535534 )
                  (  0.0000000  0.0000000 -1.0000000 )       ( -0.3535534 )


      isym = 10     inv. 180 deg rotation - cart. axis [0,0,1]   

 cryst.   s(10) = (     0         -1          1      )    f =( -0.2500000 )
                  (    -1          0          1      )       ( -0.2500000 )
                  (     0          0          1      )       ( -0.2500000 )

 cart.    s(10) = (  1.0000000  0.0000000  0.0000000 )    f =( -0.3394113 )
                  (  0.0000000  1.0000000  0.0000000 )       ( -0.3535534 )
                  (  0.0000000  0.0000000 -1.0000000 )       ( -0.3535534 )


      isym = 11     inv. 180 deg rotation - cart. axis [0,1,0]   

 cryst.   s(11) = (     0          1         -1      )    f =( -0.2500000 )
                  (     0          1          0      )       ( -0.2500000 )
                  (    -1          1          0      )       ( -0.2500000 )

 cart.    s(11) = (  1.0000000  0.0000000  0.0000000 )    f =( -0.3394113 )
                  (  0.0000000 -1.0000000  0.0000000 )       ( -0.3535534 )
                  (  0.0000000  0.0000000  1.0000000 )       ( -0.3535534 )


      isym = 12     inv. 180 deg rotation - cart. axis [1,0,0]   

 cryst.   s(12) = (     1          0          0      )    f =( -0.2500000 )
                  (     1          0         -1      )       ( -0.2500000 )
                  (     1         -1          0      )       ( -0.2500000 )

 cart.    s(12) = ( -1.0000000  0.0000000  0.0000000 )    f =( -0.3394113 )
                  (  0.0000000  1.0000000  0.0000000 )       ( -0.3535534 )
                  (  0.0000000  0.0000000  1.0000000 )       ( -0.3535534 )


      isym = 13     inv. 180 deg rotation - cart. axis [0,1,1]   

 cryst.   s(13) = (    -1          0          0      )
                  (    -1          1          0      )
                  (    -1          0          1      )

 cart.    s(13) = (  1.0000000  0.0000000  0.0000000 )
                  (  0.0000000  0.0000000 -1.0000000 )
                  (  0.0000000 -1.0000000  0.0000000 )


      isym = 14     inv. 180 deg rotation - cart. axis [0,1,-1]  

 cryst.   s(14) = (     1          0          0      )
                  (     0          0          1      )
                  (     0          1          0      )

 cart.    s(14) = (  1.0000000  0.0000000  0.0000000 )
                  (  0.0000000  0.0000000  1.0000000 )
                  (  0.0000000  1.0000000  0.0000000 )


      isym = 15     inv.  90 deg rotation - cart. axis [-1,0,0]  

 cryst.   s(15) = (     0          1         -1      )
                  (     0          0         -1      )
                  (     1          0         -1      )

 cart.    s(15) = ( -1.0000000  0.0000000  0.0000000 )
                  (  0.0000000  0.0000000 -1.0000000 )
                  (  0.0000000  1.0000000  0.0000000 )


      isym = 16     inv.  90 deg rotation - cart. axis [1,0,0]   

 cryst.   s(16) = (     0         -1          1      )
                  (     1         -1          0      )
                  (     0         -1          0      )

 cart.    s(16) = ( -1.0000000  0.0000000  0.0000000 )
                  (  0.0000000  0.0000000  1.0000000 )
                  (  0.0000000 -1.0000000  0.0000000 )


   Cartesian axes

     site n.     atom                  positions (alat units)
         1        Ge     tau(   1) = (   0.6788225   0.7071068   0.7071068  )
         2        Ge     tau(   2) = (   1.0182338   1.0606602   1.0606602  )

   Crystallographic axes

     site n.     atom                  positions (cryst. coord.)
         1        Ge     tau(   1) = (  0.5000000  0.5000000  0.5000000  )
         2        Ge     tau(   2) = (  0.7500000  0.7500000  0.7500000  )

     number of k points=   196  Marzari-Vanderbilt smearing, width (Ry)=  0.0200
                       cart. coord. in units 2pi/alat
        k(    1) = (   0.0000000   0.0000000   0.0000000), wk =   0.0009103
        k(    2) = (   0.0566592   0.0543928  -0.0543928), wk =   0.0072827
        k(    3) = (   0.1133184   0.1087857  -0.1087857), wk =   0.0072827
        k(    4) = (   0.1699776   0.1631785  -0.1631785), wk =   0.0072827
        k(    5) = (   0.2266368   0.2175713  -0.2175713), wk =   0.0072827
        k(    6) = (   0.2832960   0.2719641  -0.2719641), wk =   0.0072827
        k(    7) = (   0.3399552   0.3263570  -0.3263570), wk =   0.0072827
        k(    8) = (   0.1133184   0.0000000   0.0000000), wk =   0.0018207
        k(    9) = (   0.1699776   0.0543928  -0.0543928), wk =   0.0072827
        k(   10) = (   0.2266368   0.1087857  -0.1087857), wk =   0.0072827
        k(   11) = (   0.2832960   0.1631785  -0.1631785), wk =   0.0072827
        k(   12) = (   0.3399552   0.2175713  -0.2175713), wk =   0.0072827
        k(   13) = (   0.3966144   0.2719641  -0.2719641), wk =   0.0072827
        k(   14) = (  -0.2832960  -0.3807498   0.3807498), wk =   0.0072827
        k(   15) = (  -0.2266368  -0.3263570   0.3263570), wk =   0.0072827
        k(   16) = (  -0.1699776  -0.2719641   0.2719641), wk =   0.0072827
        k(   17) = (  -0.1133184  -0.2175713   0.2175713), wk =   0.0072827
        k(   18) = (  -0.0566592  -0.1631785   0.1631785), wk =   0.0072827
        k(   19) = (   0.0000000  -0.1087857   0.1087857), wk =   0.0036413
        k(   20) = (   0.2266368   0.0000000   0.0000000), wk =   0.0018207
        k(   21) = (   0.2832960   0.0543928  -0.0543928), wk =   0.0072827
        k(   22) = (   0.3399552   0.1087857  -0.1087857), wk =   0.0072827
        k(   23) = (   0.3966144   0.1631785  -0.1631785), wk =   0.0072827
        k(   24) = (   0.4532736   0.2175713  -0.2175713), wk =   0.0072827
        k(   25) = (  -0.2266368  -0.4351426   0.4351426), wk =   0.0072827
        k(   26) = (  -0.1699776  -0.3807498   0.3807498), wk =   0.0072827
        k(   27) = (  -0.1133184  -0.3263570   0.3263570), wk =   0.0072827
        k(   28) = (  -0.0566592  -0.2719641   0.2719641), wk =   0.0072827
        k(   29) = (   0.0000000  -0.2175713   0.2175713), wk =   0.0036413
        k(   30) = (   0.3399552   0.0000000   0.0000000), wk =   0.0018207
        k(   31) = (   0.3966144   0.0543928  -0.0543928), wk =   0.0072827
        k(   32) = (   0.4532736   0.1087857  -0.1087857), wk =   0.0072827
        k(   33) = (   0.5099328   0.1631785  -0.1631785), wk =   0.0072827
        k(   34) = (  -0.1699776  -0.4895355   0.4895355), wk =   0.0072827
        k(   35) = (  -0.1133184  -0.4351426   0.4351426), wk =   0.0072827
        k(   36) = (  -0.0566592  -0.3807498   0.3807498), wk =   0.0072827
        k(   37) = (   0.0000000  -0.3263570   0.3263570), wk =   0.0036413
        k(   38) = (   0.4532736   0.0000000   0.0000000), wk =   0.0018207
        k(   39) = (   0.5099328   0.0543928  -0.0543928), wk =   0.0072827
        k(   40) = (   0.5665920   0.1087857  -0.1087857), wk =   0.0072827
        k(   41) = (  -0.1133184  -0.5439283   0.5439283), wk =   0.0072827
        k(   42) = (  -0.0566592  -0.4895355   0.4895355), wk =   0.0072827
        k(   43) = (   0.0000000  -0.4351426   0.4351426), wk =   0.0036413
        k(   44) = (   0.5665920   0.0000000   0.0000000), wk =   0.0018207
        k(   45) = (   0.6232512   0.0543928  -0.0543928), wk =   0.0072827
        k(   46) = (  -0.0566592  -0.5983211   0.5983211), wk =   0.0072827
        k(   47) = (   0.0000000  -0.5439283   0.5439283), wk =   0.0036413
        k(   48) = (   0.6799104   0.0000000   0.0000000), wk =   0.0018207
        k(   49) = (   0.0000000  -0.6527140   0.6527140), wk =   0.0036413
        k(   50) = (   0.0000000   0.1087857   0.0000000), wk =   0.0036413
        k(   51) = (   0.0566592   0.1631785  -0.0543928), wk =   0.0145653
        k(   52) = (   0.1133184   0.2175713  -0.1087857), wk =   0.0145653
        k(   53) = (   0.1699776   0.2719641  -0.1631785), wk =   0.0145653
        k(   54) = (   0.2266368   0.3263570  -0.2175713), wk =   0.0145653
        k(   55) = (   0.2832960   0.3807498  -0.2719641), wk =   0.0145653
        k(   56) = (  -0.3966144  -0.2719641   0.3807498), wk =   0.0145653
        k(   57) = (  -0.3399552  -0.2175713   0.3263570), wk =   0.0145653
        k(   58) = (  -0.2832960  -0.1631785   0.2719641), wk =   0.0145653
        k(   59) = (  -0.2266368  -0.1087857   0.2175713), wk =   0.0145653
        k(   60) = (  -0.1699776  -0.0543928   0.1631785), wk =   0.0145653
        k(   61) = (  -0.1133184   0.0000000   0.1087857), wk =   0.0072827
        k(   62) = (   0.2266368   0.1087857   0.0000000), wk =   0.0072827
        k(   63) = (   0.2832960   0.1631785  -0.0543928), wk =   0.0145653
        k(   64) = (   0.3399552   0.2175713  -0.1087857), wk =   0.0145653
        k(   65) = (   0.3966144   0.2719641  -0.1631785), wk =   0.0145653
        k(   66) = (  -0.2832960  -0.3807498   0.4895355), wk =   0.0145653
        k(   67) = (  -0.2266368  -0.3263570   0.4351426), wk =   0.0145653
        k(   68) = (  -0.1699776  -0.2719641   0.3807498), wk =   0.0145653
        k(   69) = (  -0.1133184  -0.2175713   0.3263570), wk =   0.0145653
        k(   70) = (  -0.0566592  -0.1631785   0.2719641), wk =   0.0145653
        k(   71) = (   0.0000000  -0.1087857   0.2175713), wk =   0.0072827
        k(   72) = (   0.3399552   0.1087857   0.0000000), wk =   0.0072827
        k(   73) = (   0.3966144   0.1631785  -0.0543928), wk =   0.0145653
        k(   74) = (   0.4532736   0.2175713  -0.1087857), wk =   0.0145653
        k(   75) = (  -0.2266368  -0.4351426   0.5439283), wk =   0.0145653
        k(   76) = (  -0.1699776  -0.3807498   0.4895355), wk =   0.0145653
        k(   77) = (  -0.1133184  -0.3263570   0.4351426), wk =   0.0145653
        k(   78) = (  -0.0566592  -0.2719641   0.3807498), wk =   0.0145653
        k(   79) = (   0.0000000  -0.2175713   0.3263570), wk =   0.0072827
        k(   80) = (   0.4532736   0.1087857   0.0000000), wk =   0.0072827
        k(   81) = (   0.5099328   0.1631785  -0.0543928), wk =   0.0145653
        k(   82) = (  -0.1699776  -0.4895355   0.5983211), wk =   0.0145653
        k(   83) = (  -0.1133184  -0.4351426   0.5439283), wk =   0.0145653
        k(   84) = (  -0.0566592  -0.3807498   0.4895355), wk =   0.0145653
        k(   85) = (   0.0000000  -0.3263570   0.4351426), wk =   0.0072827
        k(   86) = (   0.5665920   0.1087857  -0.0000000), wk =   0.0072827
        k(   87) = (  -0.1133184  -0.5439283   0.6527140), wk =   0.0145653
        k(   88) = (  -0.0566592  -0.4895355   0.5983211), wk =   0.0145653
        k(   89) = (   0.0000000  -0.4351426   0.5439283), wk =   0.0072827
        k(   90) = (  -0.0566592  -0.5983211   0.7071068), wk =   0.0072827
        k(   91) = (   0.0000000  -0.5439283   0.6527140), wk =   0.0072827
        k(   92) = (   0.0000000   0.2175713   0.0000000), wk =   0.0036413
        k(   93) = (   0.0566592   0.2719641  -0.0543928), wk =   0.0145653
        k(   94) = (   0.1133184   0.3263570  -0.1087857), wk =   0.0145653
        k(   95) = (   0.1699776   0.3807498  -0.1631785), wk =   0.0145653
        k(   96) = (   0.2266368   0.4351426  -0.2175713), wk =   0.0145653
        k(   97) = (  -0.4532736  -0.2175713   0.4351426), wk =   0.0145653
        k(   98) = (  -0.3966144  -0.1631785   0.3807498), wk =   0.0145653
        k(   99) = (  -0.3399552  -0.1087857   0.3263570), wk =   0.0145653
        k(  100) = (  -0.2832960  -0.0543928   0.2719641), wk =   0.0145653
        k(  101) = (  -0.2266368   0.0000000   0.2175713), wk =   0.0072827
        k(  102) = (   0.1133184   0.2175713   0.0000000), wk =   0.0072827
        k(  103) = (   0.1699776   0.2719641  -0.0543928), wk =   0.0145653
        k(  104) = (   0.2266368   0.3263570  -0.1087857), wk =   0.0145653
        k(  105) = (   0.2832960   0.3807498  -0.1631785), wk =   0.0145653
        k(  106) = (  -0.3966144  -0.2719641   0.4895355), wk =   0.0145653
        k(  107) = (   0.3399552   0.2175713   0.0000000), wk =   0.0072827
        k(  108) = (   0.3966144   0.2719641  -0.0543928), wk =   0.0145653
        k(  109) = (  -0.2832960  -0.3807498   0.5983211), wk =   0.0145653
        k(  110) = (  -0.2266368  -0.3263570   0.5439283), wk =   0.0145653
        k(  111) = (  -0.1699776  -0.2719641   0.4895355), wk =   0.0145653
        k(  112) = (  -0.1133184  -0.2175713   0.4351426), wk =   0.0145653
        k(  113) = (  -0.0566592  -0.1631785   0.3807498), wk =   0.0145653
        k(  114) = (   0.0000000  -0.1087857   0.3263570), wk =   0.0072827
        k(  115) = (   0.4532736   0.2175713   0.0000000), wk =   0.0072827
        k(  116) = (  -0.2266368  -0.4351426   0.6527140), wk =   0.0145653
        k(  117) = (  -0.1699776  -0.3807498   0.5983211), wk =   0.0145653
        k(  118) = (  -0.1133184  -0.3263570   0.5439283), wk =   0.0145653
        k(  119) = (  -0.0566592  -0.2719641   0.4895355), wk =   0.0145653
        k(  120) = (   0.0000000  -0.2175713   0.4351426), wk =   0.0072827
        k(  121) = (  -0.1699776  -0.4895355   0.7071068), wk =   0.0072827
        k(  122) = (  -0.1133184  -0.4351426   0.6527140), wk =   0.0145653
        k(  123) = (  -0.0566592  -0.3807498   0.5983211), wk =   0.0145653
        k(  124) = (   0.0000000  -0.3263570   0.5439283), wk =   0.0072827
        k(  125) = (  -0.0566592  -0.4895355   0.7071068), wk =   0.0072827
        k(  126) = (   0.0000000  -0.4351426   0.6527140), wk =   0.0072827
        k(  127) = (   0.0000000   0.3263570   0.0000000), wk =   0.0036413
        k(  128) = (   0.0566592   0.3807498  -0.0543928), wk =   0.0145653
        k(  129) = (   0.1133184   0.4351426  -0.1087857), wk =   0.0145653
        k(  130) = (   0.1699776   0.4895355  -0.1631785), wk =   0.0145653
        k(  131) = (  -0.5099328  -0.1631785   0.4895355), wk =   0.0145653
        k(  132) = (  -0.4532736  -0.1087857   0.4351426), wk =   0.0145653
        k(  133) = (  -0.3966144  -0.0543928   0.3807498), wk =   0.0145653
        k(  134) = (  -0.3399552   0.0000000   0.3263570), wk =   0.0072827
        k(  135) = (   0.1133184   0.3263570   0.0000000), wk =   0.0072827
        k(  136) = (   0.1699776   0.3807498  -0.0543928), wk =   0.0145653
        k(  137) = (   0.2266368   0.4351426  -0.1087857), wk =   0.0145653
        k(  138) = (  -0.4532736  -0.2175713   0.5439283), wk =   0.0145653
        k(  139) = (  -0.3966144  -0.1631785   0.4895355), wk =   0.0145653
        k(  140) = (  -0.3399552  -0.1087857   0.4351426), wk =   0.0145653
        k(  141) = (  -0.2832960  -0.0543928   0.3807498), wk =   0.0145653
        k(  142) = (  -0.2266368   0.0000000   0.3263570), wk =   0.0072827
        k(  143) = (  -0.2832960  -0.3807498   0.7071068), wk =   0.0072827
        k(  144) = (  -0.2266368  -0.3263570   0.6527140), wk =   0.0145653
        k(  145) = (  -0.1699776  -0.2719641   0.5983211), wk =   0.0145653
        k(  146) = (  -0.1133184  -0.2175713   0.5439283), wk =   0.0145653
        k(  147) = (  -0.0566592  -0.1631785   0.4895355), wk =   0.0145653
        k(  148) = (   0.0000000  -0.1087857   0.4351426), wk =   0.0072827
        k(  149) = (  -0.1699776  -0.3807498   0.7071068), wk =   0.0072827
        k(  150) = (  -0.1133184  -0.3263570   0.6527140), wk =   0.0145653
        k(  151) = (  -0.0566592  -0.2719641   0.5983211), wk =   0.0145653
        k(  152) = (   0.0000000  -0.2175713   0.5439283), wk =   0.0072827
        k(  153) = (  -0.0566592  -0.3807498   0.7071068), wk =   0.0072827
        k(  154) = (   0.0000000  -0.3263570   0.6527140), wk =   0.0072827
        k(  155) = (   0.0000000   0.4351426   0.0000000), wk =   0.0036413
        k(  156) = (   0.0566592   0.4895355  -0.0543928), wk =   0.0145653
        k(  157) = (   0.1133184   0.5439283  -0.1087857), wk =   0.0145653
        k(  158) = (  -0.5665920  -0.1087857   0.5439283), wk =   0.0145653
        k(  159) = (  -0.5099328  -0.0543928   0.4895355), wk =   0.0145653
        k(  160) = (  -0.4532736   0.0000000   0.4351426), wk =   0.0072827
        k(  161) = (   0.1133184   0.4351426   0.0000000), wk =   0.0072827
        k(  162) = (   0.1699776   0.4895355  -0.0543928), wk =   0.0145653
        k(  163) = (  -0.5099328  -0.1631785   0.5983211), wk =   0.0145653
        k(  164) = (  -0.4532736  -0.1087857   0.5439283), wk =   0.0145653
        k(  165) = (  -0.3966144  -0.0543928   0.4895355), wk =   0.0145653
        k(  166) = (  -0.3399552   0.0000000   0.4351426), wk =   0.0072827
        k(  167) = (   0.2266368   0.4351426   0.0000000), wk =   0.0072827
        k(  168) = (  -0.4532736  -0.2175713   0.6527140), wk =   0.0145653
        k(  169) = (  -0.3966144  -0.1631785   0.5983211), wk =   0.0145653
        k(  170) = (  -0.1699776  -0.2719641   0.7071068), wk =   0.0072827
        k(  171) = (  -0.1133184  -0.2175713   0.6527140), wk =   0.0145653
        k(  172) = (  -0.0566592  -0.1631785   0.5983211), wk =   0.0145653
        k(  173) = (   0.0000000  -0.1087857   0.5439283), wk =   0.0072827
        k(  174) = (  -0.0566592  -0.2719641   0.7071068), wk =   0.0072827
        k(  175) = (   0.0000000  -0.2175713   0.6527140), wk =   0.0072827
        k(  176) = (   0.0000000   0.5439283   0.0000000), wk =   0.0036413
        k(  177) = (   0.0566592   0.5983211  -0.0543928), wk =   0.0145653
        k(  178) = (  -0.6232512  -0.0543928   0.5983211), wk =   0.0145653
        k(  179) = (  -0.5665920   0.0000000   0.5439283), wk =   0.0072827
        k(  180) = (   0.1133184   0.5439283  -0.0000000), wk =   0.0072827
        k(  181) = (  -0.5665920  -0.1087857   0.6527140), wk =   0.0145653
        k(  182) = (  -0.5099328  -0.0543928   0.5983211), wk =   0.0145653
        k(  183) = (  -0.4532736  -0.0000000   0.5439283), wk =   0.0072827
        k(  184) = (  -0.5099328  -0.1631785   0.7071068), wk =   0.0072827
        k(  185) = (  -0.4532736  -0.1087857   0.6527140), wk =   0.0145653
        k(  186) = (  -0.3966144  -0.0543928   0.5983211), wk =   0.0145653
        k(  187) = (  -0.3399552   0.0000000   0.5439283), wk =   0.0072827
        k(  188) = (  -0.0566592  -0.1631785   0.7071068), wk =   0.0072827
        k(  189) = (   0.0000000  -0.1087857   0.6527140), wk =   0.0072827
        k(  190) = (   0.0000000   0.6527140   0.0000000), wk =   0.0036413
        k(  191) = (  -0.6799104   0.0000000   0.6527140), wk =   0.0072827
        k(  192) = (  -0.6232512  -0.0543928   0.7071068), wk =   0.0072827
        k(  193) = (  -0.5665920   0.0000000   0.6527140), wk =   0.0072827
        k(  194) = (  -0.5099328  -0.0543928   0.7071068), wk =   0.0072827
        k(  195) = (  -0.4532736   0.0000000   0.6527140), wk =   0.0072827
        k(  196) = (  -0.3966144  -0.0543928   0.7071068), wk =   0.0072827

                       cryst. coord.
        k(    1) = (   0.0000000   0.0000000   0.0000000), wk =   0.0009103
        k(    2) = (   0.0000000   0.0000000   0.0769231), wk =   0.0072827
        k(    3) = (   0.0000000   0.0000000   0.1538462), wk =   0.0072827
        k(    4) = (   0.0000000   0.0000000   0.2307692), wk =   0.0072827
        k(    5) = (   0.0000000   0.0000000   0.3076923), wk =   0.0072827
        k(    6) = (   0.0000000   0.0000000   0.3846154), wk =   0.0072827
        k(    7) = (   0.0000000   0.0000000   0.4615385), wk =   0.0072827
        k(    8) = (   0.0000000   0.0769231   0.0769231), wk =   0.0018207
        k(    9) = (   0.0000000   0.0769231   0.1538462), wk =   0.0072827
        k(   10) = (   0.0000000   0.0769231   0.2307692), wk =   0.0072827
        k(   11) = (   0.0000000   0.0769231   0.3076923), wk =   0.0072827
        k(   12) = (   0.0000000   0.0769231   0.3846154), wk =   0.0072827
        k(   13) = (   0.0000000   0.0769231   0.4615385), wk =   0.0072827
        k(   14) = (   0.0000000   0.0769231  -0.4615385), wk =   0.0072827
        k(   15) = (   0.0000000   0.0769231  -0.3846154), wk =   0.0072827
        k(   16) = (   0.0000000   0.0769231  -0.3076923), wk =   0.0072827
        k(   17) = (   0.0000000   0.0769231  -0.2307692), wk =   0.0072827
        k(   18) = (   0.0000000   0.0769231  -0.1538462), wk =   0.0072827
        k(   19) = (   0.0000000   0.0769231  -0.0769231), wk =   0.0036413
        k(   20) = (   0.0000000   0.1538462   0.1538462), wk =   0.0018207
        k(   21) = (   0.0000000   0.1538462   0.2307692), wk =   0.0072827
        k(   22) = (   0.0000000   0.1538462   0.3076923), wk =   0.0072827
        k(   23) = (   0.0000000   0.1538462   0.3846154), wk =   0.0072827
        k(   24) = (   0.0000000   0.1538462   0.4615385), wk =   0.0072827
        k(   25) = (   0.0000000   0.1538462  -0.4615385), wk =   0.0072827
        k(   26) = (   0.0000000   0.1538462  -0.3846154), wk =   0.0072827
        k(   27) = (   0.0000000   0.1538462  -0.3076923), wk =   0.0072827
        k(   28) = (   0.0000000   0.1538462  -0.2307692), wk =   0.0072827
        k(   29) = (   0.0000000   0.1538462  -0.1538462), wk =   0.0036413
        k(   30) = (   0.0000000   0.2307692   0.2307692), wk =   0.0018207
        k(   31) = (   0.0000000   0.2307692   0.3076923), wk =   0.0072827
        k(   32) = (   0.0000000   0.2307692   0.3846154), wk =   0.0072827
        k(   33) = (   0.0000000   0.2307692   0.4615385), wk =   0.0072827
        k(   34) = (   0.0000000   0.2307692  -0.4615385), wk =   0.0072827
        k(   35) = (   0.0000000   0.2307692  -0.3846154), wk =   0.0072827
        k(   36) = (   0.0000000   0.2307692  -0.3076923), wk =   0.0072827
        k(   37) = (   0.0000000   0.2307692  -0.2307692), wk =   0.0036413
        k(   38) = (   0.0000000   0.3076923   0.3076923), wk =   0.0018207
        k(   39) = (   0.0000000   0.3076923   0.3846154), wk =   0.0072827
        k(   40) = (   0.0000000   0.3076923   0.4615385), wk =   0.0072827
        k(   41) = (   0.0000000   0.3076923  -0.4615385), wk =   0.0072827
        k(   42) = (   0.0000000   0.3076923  -0.3846154), wk =   0.0072827
        k(   43) = (   0.0000000   0.3076923  -0.3076923), wk =   0.0036413
        k(   44) = (   0.0000000   0.3846154   0.3846154), wk =   0.0018207
        k(   45) = (   0.0000000   0.3846154   0.4615385), wk =   0.0072827
        k(   46) = (   0.0000000   0.3846154  -0.4615385), wk =   0.0072827
        k(   47) = (   0.0000000   0.3846154  -0.3846154), wk =   0.0036413
        k(   48) = (   0.0000000   0.4615385   0.4615385), wk =   0.0018207
        k(   49) = (   0.0000000   0.4615385  -0.4615385), wk =   0.0036413
        k(   50) = (   0.0769231   0.0000000   0.0769231), wk =   0.0036413
        k(   51) = (   0.0769231   0.0000000   0.1538462), wk =   0.0145653
        k(   52) = (   0.0769231   0.0000000   0.2307692), wk =   0.0145653
        k(   53) = (   0.0769231   0.0000000   0.3076923), wk =   0.0145653
        k(   54) = (   0.0769231   0.0000000   0.3846154), wk =   0.0145653
        k(   55) = (   0.0769231  -0.0000000   0.4615385), wk =   0.0145653
        k(   56) = (   0.0769231  -0.0000000  -0.4615385), wk =   0.0145653
        k(   57) = (   0.0769231   0.0000000  -0.3846154), wk =   0.0145653
        k(   58) = (   0.0769231   0.0000000  -0.3076923), wk =   0.0145653
        k(   59) = (   0.0769231   0.0000000  -0.2307692), wk =   0.0145653
        k(   60) = (   0.0769231   0.0000000  -0.1538462), wk =   0.0145653
        k(   61) = (   0.0769231   0.0000000  -0.0769231), wk =   0.0072827
        k(   62) = (   0.0769231   0.1538462   0.2307692), wk =   0.0072827
        k(   63) = (   0.0769231   0.1538462   0.3076923), wk =   0.0145653
        k(   64) = (   0.0769231   0.1538462   0.3846154), wk =   0.0145653
        k(   65) = (   0.0769231   0.1538462   0.4615385), wk =   0.0145653
        k(   66) = (   0.0769231   0.1538462  -0.4615385), wk =   0.0145653
        k(   67) = (   0.0769231   0.1538462  -0.3846154), wk =   0.0145653
        k(   68) = (   0.0769231   0.1538462  -0.3076923), wk =   0.0145653
        k(   69) = (   0.0769231   0.1538462  -0.2307692), wk =   0.0145653
        k(   70) = (   0.0769231   0.1538462  -0.1538462), wk =   0.0145653
        k(   71) = (   0.0769231   0.1538462  -0.0769231), wk =   0.0072827
        k(   72) = (   0.0769231   0.2307692   0.3076923), wk =   0.0072827
        k(   73) = (   0.0769231   0.2307692   0.3846154), wk =   0.0145653
        k(   74) = (   0.0769231   0.2307692   0.4615385), wk =   0.0145653
        k(   75) = (   0.0769231   0.2307692  -0.4615385), wk =   0.0145653
        k(   76) = (   0.0769231   0.2307692  -0.3846154), wk =   0.0145653
        k(   77) = (   0.0769231   0.2307692  -0.3076923), wk =   0.0145653
        k(   78) = (   0.0769231   0.2307692  -0.2307692), wk =   0.0145653
        k(   79) = (   0.0769231   0.2307692  -0.1538462), wk =   0.0072827
        k(   80) = (   0.0769231   0.3076923   0.3846154), wk =   0.0072827
        k(   81) = (   0.0769231   0.3076923   0.4615385), wk =   0.0145653
        k(   82) = (   0.0769231   0.3076923  -0.4615385), wk =   0.0145653
        k(   83) = (   0.0769231   0.3076923  -0.3846154), wk =   0.0145653
        k(   84) = (   0.0769231   0.3076923  -0.3076923), wk =   0.0145653
        k(   85) = (   0.0769231   0.3076923  -0.2307692), wk =   0.0072827
        k(   86) = (   0.0769231   0.3846154   0.4615385), wk =   0.0072827
        k(   87) = (   0.0769231   0.3846154  -0.4615385), wk =   0.0145653
        k(   88) = (   0.0769231   0.3846154  -0.3846154), wk =   0.0145653
        k(   89) = (   0.0769231   0.3846154  -0.3076923), wk =   0.0072827
        k(   90) = (   0.0769231   0.4615385  -0.4615385), wk =   0.0072827
        k(   91) = (   0.0769231   0.4615385  -0.3846154), wk =   0.0072827
        k(   92) = (   0.1538462   0.0000000   0.1538462), wk =   0.0036413
        k(   93) = (   0.1538462   0.0000000   0.2307692), wk =   0.0145653
        k(   94) = (   0.1538462   0.0000000   0.3076923), wk =   0.0145653
        k(   95) = (   0.1538462   0.0000000   0.3846154), wk =   0.0145653
        k(   96) = (   0.1538462   0.0000000   0.4615385), wk =   0.0145653
        k(   97) = (   0.1538462   0.0000000  -0.4615385), wk =   0.0145653
        k(   98) = (   0.1538462   0.0000000  -0.3846154), wk =   0.0145653
        k(   99) = (   0.1538462   0.0000000  -0.3076923), wk =   0.0145653
        k(  100) = (   0.1538462  -0.0000000  -0.2307692), wk =   0.0145653
        k(  101) = (   0.1538462   0.0000000  -0.1538462), wk =   0.0072827
        k(  102) = (   0.1538462   0.0769231   0.2307692), wk =   0.0072827
        k(  103) = (   0.1538462   0.0769231   0.3076923), wk =   0.0145653
        k(  104) = (   0.1538462   0.0769231   0.3846154), wk =   0.0145653
        k(  105) = (   0.1538462   0.0769231   0.4615385), wk =   0.0145653
        k(  106) = (   0.1538462   0.0769231  -0.4615385), wk =   0.0145653
        k(  107) = (   0.1538462   0.2307692   0.3846154), wk =   0.0072827
        k(  108) = (   0.1538462   0.2307692   0.4615385), wk =   0.0145653
        k(  109) = (   0.1538462   0.2307692  -0.4615385), wk =   0.0145653
        k(  110) = (   0.1538462   0.2307692  -0.3846154), wk =   0.0145653
        k(  111) = (   0.1538462   0.2307692  -0.3076923), wk =   0.0145653
        k(  112) = (   0.1538462   0.2307692  -0.2307692), wk =   0.0145653
        k(  113) = (   0.1538462   0.2307692  -0.1538462), wk =   0.0145653
        k(  114) = (   0.1538462   0.2307692  -0.0769231), wk =   0.0072827
        k(  115) = (   0.1538462   0.3076923   0.4615385), wk =   0.0072827
        k(  116) = (   0.1538462   0.3076923  -0.4615385), wk =   0.0145653
        k(  117) = (   0.1538462   0.3076923  -0.3846154), wk =   0.0145653
        k(  118) = (   0.1538462   0.3076923  -0.3076923), wk =   0.0145653
        k(  119) = (   0.1538462   0.3076923  -0.2307692), wk =   0.0145653
        k(  120) = (   0.1538462   0.3076923  -0.1538462), wk =   0.0072827
        k(  121) = (   0.1538462   0.3846154  -0.4615385), wk =   0.0072827
        k(  122) = (   0.1538462   0.3846154  -0.3846154), wk =   0.0145653
        k(  123) = (   0.1538462   0.3846154  -0.3076923), wk =   0.0145653
        k(  124) = (   0.1538462   0.3846154  -0.2307692), wk =   0.0072827
        k(  125) = (   0.1538462   0.4615385  -0.3846154), wk =   0.0072827
        k(  126) = (   0.1538462   0.4615385  -0.3076923), wk =   0.0072827
        k(  127) = (   0.2307692   0.0000000   0.2307692), wk =   0.0036413
        k(  128) = (   0.2307692   0.0000000   0.3076923), wk =   0.0145653
        k(  129) = (   0.2307692   0.0000000   0.3846154), wk =   0.0145653
        k(  130) = (   0.2307692   0.0000000   0.4615385), wk =   0.0145653
        k(  131) = (   0.2307692   0.0000000  -0.4615385), wk =   0.0145653
        k(  132) = (   0.2307692  -0.0000000  -0.3846154), wk =   0.0145653
        k(  133) = (   0.2307692  -0.0000000  -0.3076923), wk =   0.0145653
        k(  134) = (   0.2307692   0.0000000  -0.2307692), wk =   0.0072827
        k(  135) = (   0.2307692   0.0769231   0.3076923), wk =   0.0072827
        k(  136) = (   0.2307692   0.0769231   0.3846154), wk =   0.0145653
        k(  137) = (   0.2307692   0.0769231   0.4615385), wk =   0.0145653
        k(  138) = (   0.2307692   0.0769231  -0.4615385), wk =   0.0145653
        k(  139) = (   0.2307692   0.0769231  -0.3846154), wk =   0.0145653
        k(  140) = (   0.2307692   0.0769231  -0.3076923), wk =   0.0145653
        k(  141) = (   0.2307692   0.0769231  -0.2307692), wk =   0.0145653
        k(  142) = (   0.2307692   0.0769231  -0.1538462), wk =   0.0072827
        k(  143) = (   0.2307692   0.3076923  -0.4615385), wk =   0.0072827
        k(  144) = (   0.2307692   0.3076923  -0.3846154), wk =   0.0145653
        k(  145) = (   0.2307692   0.3076923  -0.3076923), wk =   0.0145653
        k(  146) = (   0.2307692   0.3076923  -0.2307692), wk =   0.0145653
        k(  147) = (   0.2307692   0.3076923  -0.1538462), wk =   0.0145653
        k(  148) = (   0.2307692   0.3076923  -0.0769231), wk =   0.0072827
        k(  149) = (   0.2307692   0.3846154  -0.3846154), wk =   0.0072827
        k(  150) = (   0.2307692   0.3846154  -0.3076923), wk =   0.0145653
        k(  151) = (   0.2307692   0.3846154  -0.2307692), wk =   0.0145653
        k(  152) = (   0.2307692   0.3846154  -0.1538462), wk =   0.0072827
        k(  153) = (   0.2307692   0.4615385  -0.3076923), wk =   0.0072827
        k(  154) = (   0.2307692   0.4615385  -0.2307692), wk =   0.0072827
        k(  155) = (   0.3076923   0.0000000   0.3076923), wk =   0.0036413
        k(  156) = (   0.3076923   0.0000000   0.3846154), wk =   0.0145653
        k(  157) = (   0.3076923   0.0000000   0.4615385), wk =   0.0145653
        k(  158) = (   0.3076923   0.0000000  -0.4615385), wk =   0.0145653
        k(  159) = (   0.3076923   0.0000000  -0.3846154), wk =   0.0145653
        k(  160) = (   0.3076923   0.0000000  -0.3076923), wk =   0.0072827
        k(  161) = (   0.3076923   0.0769231   0.3846154), wk =   0.0072827
        k(  162) = (   0.3076923   0.0769231   0.4615385), wk =   0.0145653
        k(  163) = (   0.3076923   0.0769231  -0.4615385), wk =   0.0145653
        k(  164) = (   0.3076923   0.0769231  -0.3846154), wk =   0.0145653
        k(  165) = (   0.3076923   0.0769231  -0.3076923), wk =   0.0145653
        k(  166) = (   0.3076923   0.0769231  -0.2307692), wk =   0.0072827
        k(  167) = (   0.3076923   0.1538462   0.4615385), wk =   0.0072827
        k(  168) = (   0.3076923   0.1538462  -0.4615385), wk =   0.0145653
        k(  169) = (   0.3076923   0.1538462  -0.3846154), wk =   0.0145653
        k(  170) = (   0.3076923   0.3846154  -0.3076923), wk =   0.0072827
        k(  171) = (   0.3076923   0.3846154  -0.2307692), wk =   0.0145653
        k(  172) = (   0.3076923   0.3846154  -0.1538462), wk =   0.0145653
        k(  173) = (   0.3076923   0.3846154  -0.0769231), wk =   0.0072827
        k(  174) = (   0.3076923   0.4615385  -0.2307692), wk =   0.0072827
        k(  175) = (   0.3076923   0.4615385  -0.1538462), wk =   0.0072827
        k(  176) = (   0.3846154   0.0000000   0.3846154), wk =   0.0036413
        k(  177) = (   0.3846154  -0.0000000   0.4615385), wk =   0.0145653
        k(  178) = (   0.3846154  -0.0000000  -0.4615385), wk =   0.0145653
        k(  179) = (   0.3846154  -0.0000000  -0.3846154), wk =   0.0072827
        k(  180) = (   0.3846154   0.0769231   0.4615385), wk =   0.0072827
        k(  181) = (   0.3846154   0.0769231  -0.4615385), wk =   0.0145653
        k(  182) = (   0.3846154   0.0769231  -0.3846154), wk =   0.0145653
        k(  183) = (   0.3846154   0.0769231  -0.3076923), wk =   0.0072827
        k(  184) = (   0.3846154   0.1538462  -0.4615385), wk =   0.0072827
        k(  185) = (   0.3846154   0.1538462  -0.3846154), wk =   0.0145653
        k(  186) = (   0.3846154   0.1538462  -0.3076923), wk =   0.0145653
        k(  187) = (   0.3846154   0.1538462  -0.2307692), wk =   0.0072827
        k(  188) = (   0.3846154   0.4615385  -0.1538462), wk =   0.0072827
        k(  189) = (   0.3846154   0.4615385  -0.0769231), wk =   0.0072827
        k(  190) = (   0.4615385   0.0000000   0.4615385), wk =   0.0036413
        k(  191) = (   0.4615385   0.0000000  -0.4615385), wk =   0.0072827
        k(  192) = (   0.4615385   0.0769231  -0.4615385), wk =   0.0072827
        k(  193) = (   0.4615385   0.0769231  -0.3846154), wk =   0.0072827
        k(  194) = (   0.4615385   0.1538462  -0.3846154), wk =   0.0072827
        k(  195) = (   0.4615385   0.1538462  -0.3076923), wk =   0.0072827
        k(  196) = (   0.4615385   0.2307692  -0.3076923), wk =   0.0072827

     Dense  grid:    35715 G-vectors     FFT dimensions: (  48,  48,  48)

     Smooth grid:    12691 G-vectors     FFT dimensions: (  36,  36,  36)

     Dynamical RAM for                 wfc:       0.43 MB

     Dynamical RAM for     wfc (w. buffer):      85.49 MB

     Dynamical RAM for           str. fact:       0.54 MB

     Dynamical RAM for           local pot:       0.00 MB

     Dynamical RAM for          nlocal pot:       0.87 MB

     Dynamical RAM for                qrad:       1.52 MB

     Dynamical RAM for          rho,v,vnew:       4.17 MB

     Dynamical RAM for               rhoin:       1.39 MB

     Dynamical RAM for            rho*nmix:       8.72 MB

     Dynamical RAM for           G-vectors:       2.14 MB

     Dynamical RAM for          h,s,v(r/c):       0.06 MB

     Dynamical RAM for          <psi|beta>:       0.01 MB

     Dynamical RAM for                 psi:       0.87 MB

     Dynamical RAM for                hpsi:       0.87 MB

     Dynamical RAM for                spsi:       0.87 MB

     Dynamical RAM for      wfcinit/wfcrot:       0.88 MB

     Dynamical RAM for           addusdens:     102.45 MB

     Dynamical RAM for          addusforce:     103.82 MB

     Dynamical RAM for         addusstress:     109.54 MB

     Estimated static dynamical RAM per process >     101.43 MB

     Estimated max dynamical RAM per process >     219.69 MB

     Initial potential from superposition of free atoms

     starting charge      27.9984, renormalised to      28.0000
     Starting wfcs are   18 randomized atomic wfcs

     total cpu time spent up to now is       10.1 secs

     Self-consistent Calculation

     iteration #  1     ecut=    45.00 Ry     beta= 0.40
     Davidson diagonalization with overlap

---- Real-time Memory Report at c_bands before calling an iterative solver
           148 MiB given to the printing process from OS
             0 MiB allocation reported by mallinfo(arena+hblkhd)
           448 MiB available memory on the node where the printing process lives
------------------
     ethr =  1.00E-02,  avg # of iterations =  3.3

     Threshold (ethr) on eigenvalues was too large:
     Diagonalizing with lowered threshold

     Davidson diagonalization with overlap

---- Real-time Memory Report at c_bands before calling an iterative solver
           237 MiB given to the printing process from OS
             0 MiB allocation reported by mallinfo(arena+hblkhd)
           462 MiB available memory on the node where the printing process lives
------------------
     ethr =  1.10E-04,  avg # of iterations =  2.7

     total cpu time spent up to now is       65.3 secs

     total energy              =    -426.38206901 Ry
     estimated scf accuracy    <       0.03206336 Ry

     iteration #  2     ecut=    45.00 Ry     beta= 0.40
     Davidson diagonalization with overlap

---- Real-time Memory Report at c_bands before calling an iterative solver
           243 MiB given to the printing process from OS
             0 MiB allocation reported by mallinfo(arena+hblkhd)
           309 MiB available memory on the node where the printing process lives
------------------
     ethr =  1.15E-04,  avg # of iterations =  1.0

     total cpu time spent up to now is       89.1 secs

     total energy              =    -426.37994961 Ry
     estimated scf accuracy    <       0.00933852 Ry

     iteration #  3     ecut=    45.00 Ry     beta= 0.40
     Davidson diagonalization with overlap

---- Real-time Memory Report at c_bands before calling an iterative solver
           244 MiB given to the printing process from OS
             0 MiB allocation reported by mallinfo(arena+hblkhd)
           308 MiB available memory on the node where the printing process lives
------------------
     ethr =  3.34E-05,  avg # of iterations =  1.9

     total cpu time spent up to now is      114.1 secs

     total energy              =    -426.38039330 Ry
     estimated scf accuracy    <       0.00009073 Ry

     iteration #  4     ecut=    45.00 Ry     beta= 0.40
     Davidson diagonalization with overlap

---- Real-time Memory Report at c_bands before calling an iterative solver
           244 MiB given to the printing process from OS
             0 MiB allocation reported by mallinfo(arena+hblkhd)
           339 MiB available memory on the node where the printing process lives
------------------
     ethr =  3.24E-07,  avg # of iterations =  3.0

     total cpu time spent up to now is      146.5 secs

     total energy              =    -426.38041218 Ry
     estimated scf accuracy    <       0.00000469 Ry

     iteration #  5     ecut=    45.00 Ry     beta= 0.40
     Davidson diagonalization with overlap

---- Real-time Memory Report at c_bands before calling an iterative solver
           244 MiB given to the printing process from OS
             0 MiB allocation reported by mallinfo(arena+hblkhd)
           329 MiB available memory on the node where the printing process lives
------------------
     ethr =  1.67E-08,  avg # of iterations =  2.0

     total cpu time spent up to now is      177.5 secs

     total energy              =    -426.38041326 Ry
     estimated scf accuracy    <       0.00000035 Ry

     iteration #  6     ecut=    45.00 Ry     beta= 0.40
     Davidson diagonalization with overlap

---- Real-time Memory Report at c_bands before calling an iterative solver
           245 MiB given to the printing process from OS
             0 MiB allocation reported by mallinfo(arena+hblkhd)
           366 MiB available memory on the node where the printing process lives
------------------
     ethr =  1.26E-09,  avg # of iterations =  2.0

     total cpu time spent up to now is      204.6 secs

     total energy              =    -426.38041330 Ry
     estimated scf accuracy    <       0.00000005 Ry

     iteration #  7     ecut=    45.00 Ry     beta= 0.40
     Davidson diagonalization with overlap

---- Real-time Memory Report at c_bands before calling an iterative solver
           245 MiB given to the printing process from OS
             0 MiB allocation reported by mallinfo(arena+hblkhd)
           393 MiB available memory on the node where the printing process lives
------------------
     ethr =  1.86E-10,  avg # of iterations =  2.0

     total cpu time spent up to now is      236.7 secs

     total energy              =    -426.38041331 Ry
     estimated scf accuracy    <          4.8E-09 Ry

     iteration #  8     ecut=    45.00 Ry     beta= 0.40
     Davidson diagonalization with overlap

---- Real-time Memory Report at c_bands before calling an iterative solver
           246 MiB given to the printing process from OS
             0 MiB allocation reported by mallinfo(arena+hblkhd)
           371 MiB available memory on the node where the printing process lives
------------------
     ethr =  1.71E-11,  avg # of iterations =  2.0

     total cpu time spent up to now is      268.2 secs

     total energy              =    -426.38041332 Ry
     estimated scf accuracy    <          8.4E-10 Ry

     iteration #  9     ecut=    45.00 Ry     beta= 0.40
     Davidson diagonalization with overlap

---- Real-time Memory Report at c_bands before calling an iterative solver
           246 MiB given to the printing process from OS
             0 MiB allocation reported by mallinfo(arena+hblkhd)
           376 MiB available memory on the node where the printing process lives
------------------
     ethr =  2.99E-12,  avg # of iterations =  2.0

     total cpu time spent up to now is      298.0 secs

     End of self-consistent calculation

          k = 0.0000 0.0000 0.0000 (  1575 PWs)   bands (ev):

   -16.6493 -16.6382 -16.6382 -16.6094 -16.6040 -16.4094 -16.4094 -16.3971
   -16.3938 -16.3872  -4.5380   7.9847   8.0453   8.0453   8.3441  10.5458
    10.7418  10.7418

     occupation numbers 
     1.0000   1.0000   1.0000   1.0000   1.0000   1.0000   1.0000   1.0000
     1.0000   1.0000   1.0000   0.8398   0.6849   0.6849   0.0757   0.0000
     0.0000   0.0000

          k = 0.0567 0.0544-0.0544 (  1567 PWs)   bands (ev):

   -16.6511 -16.6419 -16.6390 -16.6041 -16.5994 -16.4142 -16.4129 -16.4014
   -16.3864 -16.3845  -4.4665   6.6670   7.8991   8.1060   8.9719  10.7419
    10.9257  11.0406

     occupation numbers 
     1.0000   1.0000   1.0000   1.0000   1.0000   1.0000   1.0000   1.0000
     1.0000   1.0000   1.0000   1.0000   1.0009   0.5178   0.0000   0.0000
     0.0000   0.0000

          k = 0.1133 0.1088-0.1088 (  1564 PWs)   bands (ev):

   -16.6565 -16.6485 -16.6382 -16.5935 -16.5895 -16.4235 -16.4199 -16.4054
   -16.3797 -16.3775  -4.2540   5.1921   7.5718   7.8061   9.0267  11.2110
    11.3214  12.0138

     occupation numbers 
     1.0000   1.0000   1.0000   1.0000   1.0000   1.0000   1.0000   1.0000
     1.0000   1.0000   1.0000   1.0000   1.0309   1.0772   0.0000   0.0000
     0.0000   0.0000

          k = 0.1700 0.1632-0.1632 (  1569 PWs)   bands (ev):

   -16.6625 -16.6539 -16.6350 -16.5829 -16.5795 -16.4322 -16.4267 -16.4100
   -16.3757 -16.3700  -3.9089   3.7653   7.2183   7.4884   8.7673  11.6580
    11.6602  13.3024

     occupation numbers 
     1.0000   1.0000   1.0000   1.0000   1.0000   1.0000   1.0000   1.0000
     1.0000   1.0000   1.0000   1.0000   1.0002   1.0130   0.0001   0.0000
     0.0000   0.0000

          k = 0.2266 0.2176-0.2176 (  1575 PWs)   bands (ev):

   -16.6671 -16.6573 -16.6313 -16.5746 -16.5718 -16.4388 -16.4315 -16.4147
   -16.3733 -16.3645  -3.4525   2.4664   6.9189   7.2245   8.5005  11.7871
    11.9259  14.6475

     occupation numbers 
     1.0000   1.0000   1.0000   1.0000   1.0000   1.0000   1.0000   1.0000
     1.0000   1.0000   1.0000   1.0000   1.0000   1.0002   0.0099   0.0000
     0.0000   0.0000

          k = 0.2833 0.2720-0.2720 (  1576 PWs)   bands (ev):

   -16.6699 -16.6589 -16.6280 -16.5695 -16.5671 -16.4427 -16.4339 -16.4184
   -16.3722 -16.3610  -2.9418   1.3817   6.7078   7.0411   8.3055  11.7682
    12.0034  15.2527

     occupation numbers 
     1.0000   1.0000   1.0000   1.0000   1.0000   1.0000   1.0000   1.0000
     1.0000   1.0000   1.0000   1.0000   1.0000   1.0000   0.1136   0.0000
     0.0000   0.0000

          k = 0.3400 0.3264-0.3264 (  1579 PWs)   bands (ev):

   -16.6711 -16.6595 -16.6261 -16.5673 -16.5651 -16.4444 -16.4347 -16.4205
   -16.3719 -16.3593  -2.5382   0.6878   6.5995   6.9479   8.2047  11.7250
    12.0025  15.1442

     occupation numbers 
     1.0000   1.0000   1.0000   1.0000   1.0000   1.0000   1.0000   1.0000
     1.0000   1.0000   1.0000   1.0000   1.0000   1.0000   0.2752   0.0000
     0.0000   0.0000

          k = 0.1133 0.0000 0.0000 (  1579 PWs)   bands (ev):

   -16.6506 -16.6401 -16.6401 -16.6060 -16.5967 -16.4152 -16.4064 -16.4064
   -16.3902 -16.3831  -4.4383   6.7014   7.6415   7.6415   9.5894  10.2158
    11.2548  11.2548

     occupation numbers 
     1.0000   1.0000   1.0000   1.0000   1.0000   1.0000   1.0000   1.0000
     1.0000   1.0000   1.0000   1.0000   1.0531   1.0531   0.0000   0.0000
     0.0000   0.0000

          k = 0.1700 0.0544-0.0544 (  1577 PWs)   bands (ev):

   -16.6543 -16.6443 -16.6398 -16.5989 -16.5875 -16.4270 -16.4085 -16.4058
   -16.3889 -16.3776  -4.2682   5.5468   7.2723   7.4338   9.8435  10.2615
    11.7422  12.0238

     occupation numbers 
     1.0000   1.0000   1.0000   1.0000   1.0000   1.0000   1.0000   1.0000
     1.0000   1.0000   1.0000   1.0000   1.0005   1.0065   0.0000   0.0000
     0.0000   0.0000

          k = 0.2266 0.1088-0.1088 (  1577 PWs)   bands (ev):

   -16.6613 -16.6497 -16.6353 -16.5889 -16.5768 -16.4374 -16.4156 -16.4102
   -16.3838 -16.3702  -3.9624   4.1674   6.9201   7.1378   9.6014  10.7726
    12.1401  13.0158

     occupation numbers 
     1.0000   1.0000   1.0000   1.0000   1.0000   1.0000   1.0000   1.0000
     1.0000   1.0000   1.0000   1.0000   1.0000   1.0000   0.0000   0.0000
     0.0000   0.0000

          k = 0.2833 0.1632-0.1632 (  1585 PWs)   bands (ev):

   -16.6678 -16.6541 -16.6293 -16.5794 -16.5681 -16.4444 -16.4227 -16.4173
   -16.3793 -16.3634  -3.5366   2.8491   6.6463   6.8057   9.3104  11.3156
    12.2840  13.8014

     occupation numbers 
     1.0000   1.0000   1.0000   1.0000   1.0000   1.0000   1.0000   1.0000
     1.0000   1.0000   1.0000   1.0000   1.0000   1.0000   0.0000   0.0000
     0.0000   0.0000

          k = 0.3400 0.2176-0.2176 (  1580 PWs)   bands (ev):

   -16.6725 -16.6572 -16.6235 -16.5718 -16.5632 -16.4471 -16.4289 -16.4244
   -16.3755 -16.3582  -3.0324   1.6976   6.4775   6.5211   9.0682  11.6440
    12.2141  14.5357

     occupation numbers 
     1.0000   1.0000   1.0000   1.0000   1.0000   1.0000   1.0000   1.0000
     1.0000   1.0000   1.0000   1.0000   1.0000   1.0000   0.0000   0.0000
     0.0000   0.0000

          k = 0.3966 0.2720-0.2720 (  1579 PWs)   bands (ev):

   -16.6751 -16.6594 -16.6196 -16.5662 -16.5621 -16.4464 -16.4344 -16.4291
   -16.3724 -16.3552  -2.5672   0.8567   6.3166   6.4237   8.9100  11.7747
    12.0728  15.1931

     occupation numbers 
     1.0000   1.0000   1.0000   1.0000   1.0000   1.0000   1.0000   1.0000
     1.0000   1.0000   1.0000   1.0000   1.0000   1.0000   0.0000   0.0000
     0.0000   0.0000

          k =-0.2833-0.3807 0.3807 (  1583 PWs)   bands (ev):

   -16.6757 -16.6611 -16.6188 -16.5635 -16.5625 -16.4454 -16.4394 -16.4283
   -16.3696 -16.3548  -2.4170   0.6133   6.2064   6.4860   8.8507  11.8584
    11.9529  15.4534

     occupation numbers 
     1.0000   1.0000   1.0000   1.0000   1.0000   1.0000   1.0000   1.0000
     1.0000   1.0000   1.0000   1.0000   1.0000   1.0000   0.0000   0.0000
     0.0000   0.0000

          k =-0.2266-0.3264 0.3264 (  1580 PWs)   bands (ev):

   -16.6744 -16.6621 -16.6215 -16.5663 -16.5613 -16.4451 -16.4429 -16.4220
   -16.3677 -16.3570  -2.7298   1.1163   6.2000   6.6585   8.8945  11.8751
    11.9662  15.4555

     occupation numbers 
     1.0000   1.0000   1.0000   1.0000   1.0000   1.0000   1.0000   1.0000
     1.0000   1.0000   1.0000   1.0000   1.0000   1.0000   0.0000   0.0000
     0.0000   0.0000

          k =-0.1700-0.2720 0.2720 (  1576 PWs)   bands (ev):

   -16.6712 -16.6619 -16.6267 -16.5705 -16.5641 -16.4433 -16.4432 -16.4133
   -16.3672 -16.3617  -3.2340   2.0858   6.3064   6.9278   9.0356  11.7931
    12.0647  14.7169

     occupation numbers 
     1.0000   1.0000   1.0000   1.0000   1.0000   1.0000   1.0000   1.0000
     1.0000   1.0000   1.0000   1.0000   1.0000   1.0000   0.0000   0.0000
     0.0000   0.0000

          k =-0.1133-0.2176 0.2176 (  1564 PWs)   bands (ev):

   -16.6661 -16.6597 -16.6327 -16.5768 -16.5714 -16.4393 -16.4389 -16.4044
   -16.3687 -16.3686  -3.7161   3.2853   6.5371   7.2681   9.2495  11.6046
    11.9973  13.5914

     occupation numbers 
     1.0000   1.0000   1.0000   1.0000   1.0000   1.0000   1.0000   1.0000
     1.0000   1.0000   1.0000   1.0000   1.0000   1.0005   0.0000   0.0000
     0.0000   0.0000

          k =-0.0567-0.1632 0.1632 (  1562 PWs)   bands (ev):

   -16.6597 -16.6551 -16.6378 -16.5850 -16.5823 -16.4319 -16.4318 -16.3967
   -16.3778 -16.3721  -4.0981   4.5821   6.9143   7.6255   9.4551  11.2670
    11.5807  12.5851

     occupation numbers 
     1.0000   1.0000   1.0000   1.0000   1.0000   1.0000   1.0000   1.0000
     1.0000   1.0000   1.0000   1.0000   1.0000   1.0476   0.0000   0.0000
     0.0000   0.0000

          k = 0.0000-0.1088 0.1088 (  1555 PWs)   bands (ev):

   -16.6538 -16.6486 -16.6399 -16.5944 -16.5938 -16.4231 -16.4223 -16.3921
   -16.3874 -16.3776  -4.3518   5.8072   7.4910   7.8883   9.3876  10.9509
    11.1015  11.6344

     occupation numbers 
     1.0000   1.0000   1.0000   1.0000   1.0000   1.0000   1.0000   1.0000
     1.0000   1.0000   1.0000   1.0000   1.0134   1.0150   0.0000   0.0000
     0.0000   0.0000

          k = 0.2266 0.0000 0.0000 (  1579 PWs)   bands (ev):

   -16.6512 -16.6452 -16.6452 -16.5959 -16.5786 -16.4409 -16.3992 -16.3981
   -16.3981 -16.3789  -4.1404   5.2788   6.8847   6.8847   9.5746  10.7260
    12.3342  12.3342

     occupation numbers 
     1.0000   1.0000   1.0000   1.0000   1.0000   1.0000   1.0000   1.0000
     1.0000   1.0000   1.0000   1.0000   1.0000   1.0000   0.0000   0.0000
     0.0000   0.0000

          k = 0.2833 0.0544-0.0544 (  1579 PWs)   bands (ev):

   -16.6575 -16.6493 -16.6405 -16.5874 -16.5671 -16.4541 -16.4093 -16.3993
   -16.3896 -16.3745  -3.8749   4.3044   6.5259   6.5296   9.5464  10.8344
    12.8611  12.9691

     occupation numbers 
     1.0000   1.0000   1.0000   1.0000   1.0000   1.0000   1.0000   1.0000
     1.0000   1.0000   1.0000   1.0000   1.0000   1.0000   0.0000   0.0000
     0.0000   0.0000

          k = 0.3400 0.1088-0.1088 (  1590 PWs)   bands (ev):

   -16.6667 -16.6537 -16.6305 -16.5774 -16.5571 -16.4637 -16.4195 -16.4092
   -16.3823 -16.3652  -3.4834   3.1234   6.1285   6.2543   9.7332  10.9614
    13.1139  13.1313

     occupation numbers 
     1.0000   1.0000   1.0000   1.0000   1.0000   1.0000   1.0000   1.0000
     1.0000   1.0000   1.0000   1.0000   1.0000   1.0000   0.0000   0.0000
     0.0000   0.0000

          k = 0.3966 0.1632-0.1632 (  1584 PWs)   bands (ev):

   -16.6746 -16.6575 -16.6196 -16.5678 -16.5514 -16.4674 -16.4294 -16.4216
   -16.3761 -16.3564  -2.9957   1.9917   5.7420   6.0962   9.6740  11.4562
    13.0722  13.2372

     occupation numbers 
     1.0000   1.0000   1.0000   1.0000   1.0000   1.0000   1.0000   1.0000
     1.0000   1.0000   1.0000   1.0000   1.0000   1.0000   0.0000   0.0000
     0.0000   0.0000

          k = 0.4533 0.2176-0.2176 (  1579 PWs)   bands (ev):

   -16.6803 -16.6608 -16.6102 -16.5594 -16.5515 -16.4642 -16.4389 -16.4332
   -16.3708 -16.3500  -2.4951   1.0699   5.4303   6.0622   9.5446  11.8011
    12.8875  13.8816

     occupation numbers 
     1.0000   1.0000   1.0000   1.0000   1.0000   1.0000   1.0000   1.0000
     1.0000   1.0000   1.0000   1.0000   1.0000   1.0000   0.0000   0.0000
     0.0000   0.0000

          k =-0.2266-0.4351 0.4351 (  1586 PWs)   bands (ev):

   -16.6833 -16.6635 -16.6048 -16.5560 -16.5526 -16.4551 -16.4477 -16.4419
   -16.3665 -16.3469  -2.2112   0.6169   5.2216   6.1531   9.4848  11.9194
    12.6839  14.9735

     occupation numbers 
     1.0000   1.0000   1.0000   1.0000   1.0000   1.0000   1.0000   1.0000
     1.0000   1.0000   1.0000   1.0000   1.0000   1.0000   0.0000   0.0000
     0.0000   0.0000

          k =-0.1700-0.3807 0.3807 (  1584 PWs)   bands (ev):

   -16.6832 -16.6654 -16.6056 -16.5618 -16.5488 -16.4542 -16.4476 -16.4410
   -16.3636 -16.3476  -2.4067   0.9008   5.1364   6.3612   9.5248  12.0300
    12.5009  15.5678

     occupation numbers 
     1.0000   1.0000   1.0000   1.0000   1.0000   1.0000   1.0000   1.0000
     1.0000   1.0000   1.0000   1.0000   1.0000   1.0000   0.0000   0.0000
     0.0000   0.0000

          k =-0.1133-0.3264 0.3264 (  1581 PWs)   bands (ev):

   -16.6800 -16.6660 -16.6126 -16.5671 -16.5500 -16.4561 -16.4482 -16.4263
   -16.3624 -16.3522  -2.8894   1.7135   5.2007   6.6687   9.6524  12.1863
    12.3009  14.4896

     occupation numbers 
     1.0000   1.0000   1.0000   1.0000   1.0000   1.0000   1.0000   1.0000
     1.0000   1.0000   1.0000   1.0000   1.0000   1.0000   0.0000   0.0000
     0.0000   0.0000

          k =-0.0567-0.2720 0.2720 (  1576 PWs)   bands (ev):

   -16.6741 -16.6647 -16.6228 -16.5723 -16.5575 -16.4520 -16.4456 -16.4116
   -16.3633 -16.3603  -3.3906   2.7368   5.4611   7.0396   9.8122  11.9919
    12.2487  13.4490

     occupation numbers 
     1.0000   1.0000   1.0000   1.0000   1.0000   1.0000   1.0000   1.0000
     1.0000   1.0000   1.0000   1.0000   1.0000   1.0000   0.0000   0.0000
     0.0000   0.0000

          k = 0.0000-0.2176 0.2176 (  1572 PWs)   bands (ev):

   -16.6665 -16.6609 -16.6323 -16.5784 -16.5692 -16.4431 -16.4400 -16.3999
   -16.3704 -16.3666  -3.8056   3.7528   6.0082   7.4023   9.8392  11.5732
    11.8649  13.0382

     occupation numbers 
     1.0000   1.0000   1.0000   1.0000   1.0000   1.0000   1.0000   1.0000
     1.0000   1.0000   1.0000   1.0000   1.0000   1.0042   0.0000   0.0000
     0.0000   0.0000

          k = 0.3400 0.0000 0.0000 (  1587 PWs)   bands (ev):

   -16.6519 -16.6519 -16.6471 -16.5800 -16.5539 -16.4712 -16.4138 -16.3868
   -16.3868 -16.3830  -3.6491   3.8896   6.1554   6.1554   8.9839  10.9656
    13.5912  13.5912

     occupation numbers 
     1.0000   1.0000   1.0000   1.0000   1.0000   1.0000   1.0000   1.0000
     1.0000   1.0000   1.0000   1.0000   1.0000   1.0000   0.0000   0.0000
     0.0000   0.0000

          k = 0.3966 0.0544-0.0544 (  1590 PWs)   bands (ev):

   -16.6616 -16.6556 -16.6359 -16.5698 -16.5414 -16.4852 -16.4238 -16.3983
   -16.3802 -16.3718  -3.2934   3.0504   5.7505   5.8709   9.0345  10.7650
    13.7744  14.0734

     occupation numbers 
     1.0000   1.0000   1.0000   1.0000   1.0000   1.0000   1.0000   1.0000
     1.0000   1.0000   1.0000   1.0000   1.0000   1.0000   0.0000   0.0000
     0.0000   0.0000

          k = 0.4533 0.1088-0.1088 (  1588 PWs)   bands (ev):

   -16.6723 -16.6594 -16.6208 -16.5590 -16.5331 -16.4932 -16.4352 -16.4148
   -16.3737 -16.3593  -2.8292   2.0855   5.2525   5.7020   9.3088  10.9416
    13.5277  14.1682

     occupation numbers 
     1.0000   1.0000   1.0000   1.0000   1.0000   1.0000   1.0000   1.0000
     1.0000   1.0000   1.0000   1.0000   1.0000   1.0000   0.0000   0.0000
     0.0000   0.0000

          k = 0.5099 0.1632-0.1632 (  1589 PWs)   bands (ev):

   -16.6813 -16.6627 -16.6061 -16.5486 -16.5320 -16.4926 -16.4469 -16.4311
   -16.3681 -16.3490  -2.3141   1.1920   4.8018   5.6613   9.3791  11.7571
    13.3235  14.0049

     occupation numbers 
     1.0000   1.0000   1.0000   1.0000   1.0000   1.0000   1.0000   1.0000
     1.0000   1.0000   1.0000   1.0000   1.0000   1.0000   0.0000   0.0000
     0.0000   0.0000

          k =-0.1700-0.4895 0.4895 (  1586 PWs)   bands (ev):

   -16.6873 -16.6656 -16.5951 -16.5395 -16.5383 -16.4837 -16.4581 -16.4433
   -16.3636 -16.3423  -1.9242   0.6061   4.4725   5.7510   9.4077  12.6573
    13.5300  13.7538

     occupation numbers 
     1.0000   1.0000   1.0000   1.0000   1.0000   1.0000   1.0000   1.0000
     1.0000   1.0000   1.0000   1.0000   1.0000   1.0000   0.0000   0.0000
     0.0000   0.0000

          k =-0.1133-0.4351 0.4351 (  1577 PWs)   bands (ev):

   -16.6896 -16.6678 -16.5909 -16.5496 -16.5337 -16.4684 -16.4667 -16.4495
   -16.3605 -16.3402  -1.9883   0.6716   4.3068   5.9641   9.5184  12.8517
    13.4758  14.7014

     occupation numbers 
     1.0000   1.0000   1.0000   1.0000   1.0000   1.0000   1.0000   1.0000
     1.0000   1.0000   1.0000   1.0000   1.0000   1.0000   0.0000   0.0000
     0.0000   0.0000

          k =-0.0567-0.3807 0.3807 (  1575 PWs)   bands (ev):

   -16.6879 -16.6686 -16.5957 -16.5606 -16.5348 -16.4688 -16.4538 -16.4461
   -16.3593 -16.3428  -2.4368   1.2905   4.3573   6.2819   9.7111  12.9529
    13.1206  14.3155

     occupation numbers 
     1.0000   1.0000   1.0000   1.0000   1.0000   1.0000   1.0000   1.0000
     1.0000   1.0000   1.0000   1.0000   1.0000   1.0000   0.0000   0.0000
     0.0000   0.0000

          k = 0.0000-0.3264 0.3264 (  1582 PWs)   bands (ev):

   -16.6823 -16.6677 -16.6085 -16.5674 -16.5439 -16.4629 -16.4503 -16.4278
   -16.3602 -16.3501  -2.9494   2.0585   4.7128   6.6659   9.8947  12.5936
    12.9878  13.2473

     occupation numbers 
     1.0000   1.0000   1.0000   1.0000   1.0000   1.0000   1.0000   1.0000
     1.0000   1.0000   1.0000   1.0000   1.0000   1.0000   0.0000   0.0000
     0.0000   0.0000

          k = 0.4533 0.0000 0.0000 (  1583 PWs)   bands (ev):

   -16.6586 -16.6586 -16.6368 -16.5592 -16.5256 -16.5041 -16.4331 -16.3948
   -16.3753 -16.3753  -2.9726   2.5396   5.5667   5.5667   8.5750  10.2749
    14.9096  14.9096

     occupation numbers 
     1.0000   1.0000   1.0000   1.0000   1.0000   1.0000   1.0000   1.0000
     1.0000   1.0000   1.0000   1.0000   1.0000   1.0000   0.0030   0.0000
     0.0000   0.0000

          k = 0.5099 0.0544-0.0544 (  1591 PWs)   bands (ev):

   -16.6664 -16.6617 -16.6237 -16.5475 -16.5180 -16.5127 -16.4446 -16.4096
   -16.3700 -16.3649  -2.5355   1.8035   5.1708   5.3761   8.7132  10.0301
    14.9605  15.3210

     occupation numbers 
     1.0000   1.0000   1.0000   1.0000   1.0000   1.0000   1.0000   1.0000
     1.0000   1.0000   1.0000   1.0000   1.0000   1.0000   0.0002   0.0000
     0.0000   0.0000

          k = 0.5666 0.1088-0.1088 (  1596 PWs)   bands (ev):

   -16.6770 -16.6645 -16.6057 -16.5358 -16.5242 -16.5059 -16.4573 -16.4287
   -16.3652 -16.3529  -2.0210   1.0362   4.6247   5.3148   8.9713  10.4428
    14.6825  15.2827

     occupation numbers 
     1.0000   1.0000   1.0000   1.0000   1.0000   1.0000   1.0000   1.0000
     1.0000   1.0000   1.0000   1.0000   1.0000   1.0000   0.0000   0.0000
     0.0000   0.0000

          k =-0.1133-0.5439 0.5439 (  1585 PWs)   bands (ev):

   -16.6859 -16.6669 -16.5907 -16.5249 -16.5208 -16.5076 -16.4699 -16.4442
   -16.3614 -16.3432  -1.5556   0.4230   4.1530   5.3867   9.0733  11.5366
    14.4402  15.0150

     occupation numbers 
     1.0000   1.0000   1.0000   1.0000   1.0000   1.0000   1.0000   1.0000
     1.0000   1.0000   1.0000   1.0000   1.0000   1.0000   0.0000   0.0000
     0.0000   0.0000

          k =-0.0567-0.4895 0.4895 (  1584 PWs)   bands (ev):

   -16.6913 -16.6687 -16.5839 -16.5270 -16.5180 -16.4993 -16.4795 -16.4511
   -16.3590 -16.3378  -1.5013   0.3298   3.8844   5.5863   9.2246  12.9444
    14.2843  14.6092

     occupation numbers 
     1.0000   1.0000   1.0000   1.0000   1.0000   1.0000   1.0000   1.0000
     1.0000   1.0000   1.0000   1.0000   1.0000   1.0000   0.0000   0.0000
     0.0000   0.0000

          k = 0.0000-0.4351 0.4351 (  1582 PWs)   bands (ev):

   -16.6920 -16.6695 -16.5852 -16.5463 -16.5218 -16.4787 -16.4755 -16.4518
   -16.3582 -16.3376  -1.9223   0.7733   3.9198   5.8968   9.4673  13.9781
    14.0267  14.1861

     occupation numbers 
     1.0000   1.0000   1.0000   1.0000   1.0000   1.0000   1.0000   1.0000
     1.0000   1.0000   1.0000   1.0000   1.0000   1.0000   0.0000   0.0000
     0.0000   0.0000

          k = 0.5666 0.0000 0.0000 (  1583 PWs)   bands (ev):

   -16.6639 -16.6639 -16.6199 -16.5374 -16.5349 -16.4955 -16.4562 -16.4135
   -16.3660 -16.3660  -2.1239   1.2389   5.1594   5.1594   8.3981   9.4546
    16.2274  16.2274

     occupation numbers 
     1.0000   1.0000   1.0000   1.0000   1.0000   1.0000   1.0000   1.0000
     1.0000   1.0000   1.0000   1.0000   1.0000   1.0000   0.0403   0.0000
     0.0000   0.0000

          k = 0.6233 0.0544-0.0544 (  1593 PWs)   bands (ev):

   -16.6701 -16.6658 -16.6046 -16.5497 -16.5222 -16.4836 -16.4690 -16.4295
   -16.3626 -16.3587  -1.6190   0.5870   4.8166   5.0706   8.6135   9.3604
    16.2598  16.5284

     occupation numbers 
     1.0000   1.0000   1.0000   1.0000   1.0000   1.0000   1.0000   1.0000
     1.0000   1.0000   1.0000   1.0000   1.0000   1.0000   0.0015   0.0000
     0.0000   0.0000

          k =-0.0567-0.5983 0.5983 (  1592 PWs)   bands (ev):

   -16.6797 -16.6674 -16.5875 -16.5496 -16.5100 -16.4825 -16.4824 -16.4468
   -16.3602 -16.3488  -1.1054   0.0000   4.3016   5.1163   8.7970  10.1190
    15.9531  16.2880

     occupation numbers 
     1.0000   1.0000   1.0000   1.0000   1.0000   1.0000   1.0000   1.0000
     1.0000   1.0000   1.0000   1.0000   1.0000   1.0000   0.0000   0.0000
     0.0000   0.0000

          k = 0.0000-0.5439 0.5439 (  1586 PWs)   bands (ev):

   -16.6876 -16.6685 -16.5820 -16.5296 -16.5053 -16.5003 -16.4894 -16.4521
   -16.3589 -16.3410  -1.0381  -0.0867   3.9213   5.2931   8.9590  11.4247
    15.4504  15.6383

     occupation numbers 
     1.0000   1.0000   1.0000   1.0000   1.0000   1.0000   1.0000   1.0000
     1.0000   1.0000   1.0000   1.0000   1.0000   1.0000   0.0000   0.0000
     0.0000   0.0000

          k = 0.6799 0.0000 0.0000 (  1600 PWs)   bands (ev):

   -16.6668 -16.6668 -16.5971 -16.5691 -16.5086 -16.4819 -16.4656 -16.4377
   -16.3608 -16.3608  -1.1219   0.0088   4.9519   4.9519   8.4790   8.8326
    17.3233  17.3233

     occupation numbers 
     1.0000   1.0000   1.0000   1.0000   1.0000   1.0000   1.0000   1.0000
     1.0000   1.0000   1.0000   1.0000   1.0000   1.0000   0.0136   0.0000
     0.0000   0.0000

          k = 0.0000-0.6527 0.6527 (  1598 PWs)   bands (ev):

   -16.6714 -16.6673 -16.5834 -16.5754 -16.4963 -16.4945 -16.4586 -16.4514
   -16.3600 -16.3563  -0.6165  -0.5171   4.6978   4.9675   8.6603   9.0445
    17.0964  17.2105

     occupation numbers 
     1.0000   1.0000   1.0000   1.0000   1.0000   1.0000   1.0000   1.0000
     1.0000   1.0000   1.0000   1.0000   1.0000   1.0000   0.0006   0.0000
     0.0000   0.0000

          k = 0.0000 0.1088 0.0000 (  1565 PWs)   bands (ev):

   -16.6515 -16.6437 -16.6406 -16.6034 -16.5954 -16.4254 -16.4057 -16.3973
   -16.3907 -16.3809  -4.4446   6.5502   7.6725   7.9117   9.4365  10.4505
    11.0300  11.3086

     occupation numbers 
     1.0000   1.0000   1.0000   1.0000   1.0000   1.0000   1.0000   1.0000
     1.0000   1.0000   1.0000   1.0000   1.0638   0.9826   0.0000   0.0000
     0.0000   0.0000

          k = 0.0567 0.1632-0.0544 (  1558 PWs)   bands (ev):

   -16.6561 -16.6481 -16.6417 -16.5964 -16.5845 -16.4371 -16.4098 -16.3981
   -16.3853 -16.3752  -4.2806   5.4690   7.3486   7.5530   9.7686  10.5078
    11.5954  11.9784

     occupation numbers 
     1.0000   1.0000   1.0000   1.0000   1.0000   1.0000   1.0000   1.0000
     1.0000   1.0000   1.0000   1.0000   1.0019   1.0259   0.0000   0.0000
     0.0000   0.0000

          k = 0.1133 0.2176-0.1088 (  1564 PWs)   bands (ev):

   -16.6628 -16.6538 -16.6383 -16.5867 -16.5732 -16.4470 -16.4187 -16.4011
   -16.3790 -16.3686  -3.9803   4.1448   6.9795   7.1905   9.5806  10.9725
    12.1173  12.8827

     occupation numbers 
     1.0000   1.0000   1.0000   1.0000   1.0000   1.0000   1.0000   1.0000
     1.0000   1.0000   1.0000   1.0000   1.0000   1.0001   0.0000   0.0000
     0.0000   0.0000

          k = 0.1700 0.2720-0.1632 (  1571 PWs)   bands (ev):

   -16.6683 -16.6587 -16.6326 -16.5775 -16.5644 -16.4535 -16.4267 -16.4072
   -16.3736 -16.3630  -3.5588   2.8528   6.6095   6.9129   9.3079  11.3573
    12.3816  13.7940

     occupation numbers 
     1.0000   1.0000   1.0000   1.0000   1.0000   1.0000   1.0000   1.0000
     1.0000   1.0000   1.0000   1.0000   1.0000   1.0000   0.0000   0.0000
     0.0000   0.0000

          k = 0.2266 0.3264-0.2176 (  1575 PWs)   bands (ev):

   -16.6718 -16.6620 -16.6265 -16.5703 -16.5598 -16.4554 -16.4332 -16.4143
   -16.3696 -16.3591  -3.0559   1.7113   6.2928   6.7533   9.0795  11.5168
    12.3926  14.7608

     occupation numbers 
     1.0000   1.0000   1.0000   1.0000   1.0000   1.0000   1.0000   1.0000
     1.0000   1.0000   1.0000   1.0000   1.0000   1.0000   0.0000   0.0000
     0.0000   0.0000

          k = 0.2833 0.3807-0.2720 (  1581 PWs)   bands (ev):

   -16.6735 -16.6640 -16.6216 -16.5652 -16.5595 -16.4533 -16.4377 -16.4206
   -16.3673 -16.3570  -2.5846   0.8663   6.0662   6.7087   8.9332  11.5850
    12.2825  15.3440

     occupation numbers 
     1.0000   1.0000   1.0000   1.0000   1.0000   1.0000   1.0000   1.0000
     1.0000   1.0000   1.0000   1.0000   1.0000   1.0000   0.0000   0.0000
     0.0000   0.0000

          k =-0.3966-0.2720 0.3807 (  1579 PWs)   bands (ev):

   -16.6736 -16.6646 -16.6192 -16.5642 -16.5603 -16.4505 -16.4382 -16.4252
   -16.3669 -16.3565  -2.4161   0.6035   5.9473   6.7735   8.8818  11.6773
    12.1587  15.4150

     occupation numbers 
     1.0000   1.0000   1.0000   1.0000   1.0000   1.0000   1.0000   1.0000
     1.0000   1.0000   1.0000   1.0000   1.0000   1.0000   0.0000   0.0000
     0.0000   0.0000

          k =-0.3400-0.2176 0.3264 (  1584 PWs)   bands (ev):

   -16.6726 -16.6636 -16.6202 -16.5687 -16.5597 -16.4502 -16.4332 -16.4261
   -16.3686 -16.3575  -2.7142   1.0904   5.9456   6.9391   8.9281  11.8133
    12.0497  15.3200

     occupation numbers 
     1.0000   1.0000   1.0000   1.0000   1.0000   1.0000   1.0000   1.0000
     1.0000   1.0000   1.0000   1.0000   1.0000   1.0000   0.0000   0.0000
     0.0000   0.0000

          k =-0.2833-0.1632 0.2720 (  1578 PWs)   bands (ev):

   -16.6704 -16.6607 -16.6244 -16.5749 -16.5624 -16.4487 -16.4294 -16.4197
   -16.3727 -16.3598  -3.2152   2.0573   6.0670   7.1919   9.0671  11.8676
    11.9591  14.6064

     occupation numbers 
     1.0000   1.0000   1.0000   1.0000   1.0000   1.0000   1.0000   1.0000
     1.0000   1.0000   1.0000   1.0000   1.0000   1.0001   0.0000   0.0000
     0.0000   0.0000

          k =-0.2266-0.1088 0.2176 (  1571 PWs)   bands (ev):

   -16.6665 -16.6558 -16.6304 -16.5826 -16.5694 -16.4436 -16.4254 -16.4102
   -16.3790 -16.3638  -3.6997   3.2653   6.3162   7.5072   9.2791  11.5786
    11.8628  13.6258

     occupation numbers 
     1.0000   1.0000   1.0000   1.0000   1.0000   1.0000   1.0000   1.0000
     1.0000   1.0000   1.0000   1.0000   1.0000   1.0161   0.0000   0.0000
     0.0000   0.0000

          k =-0.1700-0.0544 0.1632 (  1569 PWs)   bands (ev):

   -16.6610 -16.6492 -16.6366 -16.5916 -16.5798 -16.4350 -16.4190 -16.4021
   -16.3864 -16.3697  -4.0862   4.5845   6.7015   7.8347   9.4927  11.1174
    11.4287  12.7796

     occupation numbers 
     1.0000   1.0000   1.0000   1.0000   1.0000   1.0000   1.0000   1.0000
     1.0000   1.0000   1.0000   1.0000   1.0000   1.0641   0.0000   0.0000
     0.0000   0.0000

          k =-0.1133 0.0000 0.1088 (  1565 PWs)   bands (ev):

   -16.6547 -16.6427 -16.6408 -16.6001 -16.5913 -16.4244 -16.4109 -16.4025
   -16.3887 -16.3772  -4.3457   5.8447   7.2588   8.0671   9.4337  10.7323
    10.9982  11.8835

     occupation numbers 
     1.0000   1.0000   1.0000   1.0000   1.0000   1.0000   1.0000   1.0000
     1.0000   1.0000   1.0000   1.0000   1.0004   0.6250   0.0000   0.0000
     0.0000   0.0000

          k = 0.2266 0.1088 0.0000 (  1588 PWs)   bands (ev):

   -16.6587 -16.6481 -16.6374 -16.5923 -16.5771 -16.4393 -16.4153 -16.3957
   -16.3941 -16.3722  -4.0507   4.7023   6.4961   7.3664  10.1306  10.2517
    12.1518  12.7465

     occupation numbers 
     1.0000   1.0000   1.0000   1.0000   1.0000   1.0000   1.0000   1.0000
     1.0000   1.0000   1.0000   1.0000   1.0000   1.0025   0.0000   0.0000
     0.0000   0.0000

          k = 0.2833 0.1632-0.0544 (  1582 PWs)   bands (ev):

   -16.6653 -16.6547 -16.6294 -16.5835 -16.5660 -16.4497 -16.4231 -16.4070
   -16.3831 -16.3654  -3.7018   3.5606   5.9305   7.1499  10.0294  10.7089
    12.5824  13.1605

     occupation numbers 
     1.0000   1.0000   1.0000   1.0000   1.0000   1.0000   1.0000   1.0000
     1.0000   1.0000   1.0000   1.0000   1.0000   1.0000   0.0000   0.0000
     0.0000   0.0000

          k = 0.3400 0.2176-0.1088 (  1575 PWs)   bands (ev):

   -16.6717 -16.6599 -16.6200 -16.5747 -16.5575 -16.4559 -16.4294 -16.4206
   -16.3746 -16.3589  -3.2429   2.3845   5.5900   6.8513   9.8026  11.2785
    12.6745  13.5507

     occupation numbers 
     1.0000   1.0000   1.0000   1.0000   1.0000   1.0000   1.0000   1.0000
     1.0000   1.0000   1.0000   1.0000   1.0000   1.0000   0.0000   0.0000
     0.0000   0.0000

          k = 0.3966 0.2720-0.1632 (  1584 PWs)   bands (ev):

   -16.6768 -16.6632 -16.6124 -16.5667 -16.5539 -16.4566 -16.4353 -16.4329
   -16.3690 -16.3536  -2.7316   1.3580   5.4088   6.5850   9.6191  11.5421
    12.6542  14.2532

     occupation numbers 
     1.0000   1.0000   1.0000   1.0000   1.0000   1.0000   1.0000   1.0000
     1.0000   1.0000   1.0000   1.0000   1.0000   1.0000   0.0000   0.0000
     0.0000   0.0000

          k =-0.2833-0.3807 0.4895 (  1579 PWs)   bands (ev):

   -16.6799 -16.6650 -16.6090 -16.5593 -16.5548 -16.4526 -16.4477 -16.4343
   -16.3658 -16.3503  -2.3335   0.6944   5.3545   6.4100   9.5229  11.5418
    12.6627  15.1947

     occupation numbers 
     1.0000   1.0000   1.0000   1.0000   1.0000   1.0000   1.0000   1.0000
     1.0000   1.0000   1.0000   1.0000   1.0000   1.0000   0.0000   0.0000
     0.0000   0.0000

          k =-0.2266-0.3264 0.4351 (  1577 PWs)   bands (ev):

   -16.6805 -16.6656 -16.6108 -16.5592 -16.5529 -16.4585 -16.4459 -16.4308
   -16.3644 -16.3500  -2.3531   0.7136   5.4039   6.3626   9.5274  11.5028
    12.6982  15.5059

     occupation numbers 
     1.0000   1.0000   1.0000   1.0000   1.0000   1.0000   1.0000   1.0000
     1.0000   1.0000   1.0000   1.0000   1.0000   1.0000   0.0000   0.0000
     0.0000   0.0000

          k =-0.1700-0.2720 0.3807 (  1580 PWs)   bands (ev):

   -16.6785 -16.6653 -16.6173 -16.5644 -16.5507 -16.4645 -16.4405 -16.4218
   -16.3645 -16.3528  -2.7714   1.3938   5.5427   6.4620   9.6308  11.4768
    12.7490  14.5701

     occupation numbers 
     1.0000   1.0000   1.0000   1.0000   1.0000   1.0000   1.0000   1.0000
     1.0000   1.0000   1.0000   1.0000   1.0000   1.0000   0.0000   0.0000
     0.0000   0.0000

          k =-0.1133-0.2176 0.3264 (  1575 PWs)   bands (ev):

   -16.6739 -16.6637 -16.6260 -16.5710 -16.5537 -16.4648 -16.4346 -16.4104
   -16.3664 -16.3586  -3.2838   2.4083   5.7791   6.6971   9.8170  11.3448
    12.7574  13.6085

     occupation numbers 
     1.0000   1.0000   1.0000   1.0000   1.0000   1.0000   1.0000   1.0000
     1.0000   1.0000   1.0000   1.0000   1.0000   1.0000   0.0000   0.0000
     0.0000   0.0000

          k =-0.0567-0.1632 0.2720 (  1571 PWs)   bands (ev):

   -16.6671 -16.6605 -16.6346 -16.5791 -16.5620 -16.4593 -16.4272 -16.4001
   -16.3709 -16.3658  -3.7360   3.5476   6.1534   7.0128  10.0418  10.9198
    12.6387  12.9895

     occupation numbers 
     1.0000   1.0000   1.0000   1.0000   1.0000   1.0000   1.0000   1.0000
     1.0000   1.0000   1.0000   1.0000   1.0000   1.0000   0.0000   0.0000
     0.0000   0.0000

          k = 0.0000-0.1088 0.2176 (  1567 PWs)   bands (ev):

   -16.6599 -16.6555 -16.6405 -16.5884 -16.5732 -16.4495 -16.4184 -16.3941
   -16.3790 -16.3716  -4.0749   4.6367   6.7382   7.2889  10.1393  10.4545
    12.2366  12.5019

     occupation numbers 
     1.0000   1.0000   1.0000   1.0000   1.0000   1.0000   1.0000   1.0000
     1.0000   1.0000   1.0000   1.0000   1.0000   1.0007   0.0000   0.0000
     0.0000   0.0000

          k = 0.3400 0.1088 0.0000 (  1586 PWs)   bands (ev):

   -16.6618 -16.6553 -16.6336 -16.5787 -16.5551 -16.4677 -16.4177 -16.4031
   -16.3827 -16.3700  -3.5650   3.5177   5.7782   6.4783   9.5530  10.8898
    13.0727  13.4914

     occupation numbers 
     1.0000   1.0000   1.0000   1.0000   1.0000   1.0000   1.0000   1.0000
     1.0000   1.0000   1.0000   1.0000   1.0000   1.0000   0.0000   0.0000
     0.0000   0.0000

          k = 0.3966 0.1632-0.0544 (  1587 PWs)   bands (ev):

   -16.6698 -16.6609 -16.6210 -16.5689 -16.5450 -16.4771 -16.4274 -16.4172
   -16.3737 -16.3615  -3.1366   2.5377   5.2532   6.2551   9.8376  11.0121
    12.8411  13.9107

     occupation numbers 
     1.0000   1.0000   1.0000   1.0000   1.0000   1.0000   1.0000   1.0000
     1.0000   1.0000   1.0000   1.0000   1.0000   1.0000   0.0000   0.0000
     0.0000   0.0000

          k = 0.4533 0.2176-0.1088 (  1587 PWs)   bands (ev):

   -16.6782 -16.6644 -16.6081 -16.5593 -16.5399 -16.4799 -16.4382 -16.4318
   -16.3675 -16.3525  -2.6301   1.5613   4.9174   6.0210   9.8914  11.5639
    12.7525  13.9937

     occupation numbers 
     1.0000   1.0000   1.0000   1.0000   1.0000   1.0000   1.0000   1.0000
     1.0000   1.0000   1.0000   1.0000   1.0000   1.0000   0.0000   0.0000
     0.0000   0.0000

          k =-0.2266-0.4351 0.5439 (  1584 PWs)   bands (ev):

   -16.6843 -16.6668 -16.5985 -16.5508 -16.5407 -16.4753 -16.4521 -16.4402
   -16.3634 -16.3457  -2.1638   0.8029   4.7138   5.8937   9.8656  11.8061
    13.3337  14.0403

     occupation numbers 
     1.0000   1.0000   1.0000   1.0000   1.0000   1.0000   1.0000   1.0000
     1.0000   1.0000   1.0000   1.0000   1.0000   1.0000   0.0000   0.0000
     0.0000   0.0000

          k =-0.1700-0.3807 0.4895 (  1581 PWs)   bands (ev):

   -16.6871 -16.6684 -16.5954 -16.5508 -16.5396 -16.4702 -16.4583 -16.4439
   -16.3608 -16.3428  -2.0316   0.5952   4.6196   5.9212   9.9096  11.7660
    13.5952  14.8656

     occupation numbers 
     1.0000   1.0000   1.0000   1.0000   1.0000   1.0000   1.0000   1.0000
     1.0000   1.0000   1.0000   1.0000   1.0000   1.0000   0.0000   0.0000
     0.0000   0.0000

          k =-0.1133-0.3264 0.4351 (  1582 PWs)   bands (ev):

   -16.6862 -16.6691 -16.6003 -16.5579 -16.5369 -16.4751 -16.4482 -16.4406
   -16.3597 -16.3443  -2.3740   1.0786   4.6515   6.1033  10.0414  11.7380
    13.4215  14.5545

     occupation numbers 
     1.0000   1.0000   1.0000   1.0000   1.0000   1.0000   1.0000   1.0000
     1.0000   1.0000   1.0000   1.0000   1.0000   1.0000   0.0000   0.0000
     0.0000   0.0000

          k =-0.0567-0.2720 0.3807 (  1576 PWs)   bands (ev):

   -16.6817 -16.6684 -16.6115 -16.5646 -16.5404 -16.4754 -16.4425 -16.4255
   -16.3603 -16.3503  -2.8861   1.9085   4.8628   6.4052  10.2250  11.6359
    12.9741  13.8115

     occupation numbers 
     1.0000   1.0000   1.0000   1.0000   1.0000   1.0000   1.0000   1.0000
     1.0000   1.0000   1.0000   1.0000   1.0000   1.0000   0.0000   0.0000
     0.0000   0.0000

          k = 0.0000-0.2176 0.3264 (  1578 PWs)   bands (ev):

   -16.6745 -16.6657 -16.6244 -16.5715 -16.5499 -16.4694 -16.4357 -16.4100
   -16.3627 -16.3597  -3.3631   2.7898   5.3407   6.7552  10.3348  11.1901
    12.8049  13.2532

     occupation numbers 
     1.0000   1.0000   1.0000   1.0000   1.0000   1.0000   1.0000   1.0000
     1.0000   1.0000   1.0000   1.0000   1.0000   1.0000   0.0000   0.0000
     0.0000   0.0000

          k = 0.4533 0.1088 0.0000 (  1593 PWs)   bands (ev):

   -16.6654 -16.6624 -16.6252 -16.5592 -16.5287 -16.4991 -16.4343 -16.4092
   -16.3712 -16.3664  -2.8983   2.3278   5.2190   5.7129   9.1341  10.5261
    13.7537  14.8765

     occupation numbers 
     1.0000   1.0000   1.0000   1.0000   1.0000   1.0000   1.0000   1.0000
     1.0000   1.0000   1.0000   1.0000   1.0000   1.0000   0.0000   0.0000
     0.0000   0.0000

          k = 0.5099 0.1632-0.0544 (  1590 PWs)   bands (ev):

   -16.6748 -16.6664 -16.6086 -16.5482 -16.5206 -16.5065 -16.4463 -16.4267
   -16.3647 -16.3558  -2.4074   1.5145   4.7378   5.5062   9.4795  10.7417
    13.4482  15.2110

     occupation numbers 
     1.0000   1.0000   1.0000   1.0000   1.0000   1.0000   1.0000   1.0000
     1.0000   1.0000   1.0000   1.0000   1.0000   1.0000   0.0000   0.0000
     0.0000   0.0000

          k =-0.1700-0.4895 0.5983 (  1587 PWs)   bands (ev):

   -16.6838 -16.6688 -16.5933 -16.5381 -16.5207 -16.5040 -16.4597 -16.4419
   -16.3607 -16.3458  -1.9010   0.7751   4.3521   5.4043   9.6037  11.6795
    13.1666  15.1139

     occupation numbers 
     1.0000   1.0000   1.0000   1.0000   1.0000   1.0000   1.0000   1.0000
     1.0000   1.0000   1.0000   1.0000   1.0000   1.0000   0.0000   0.0000
     0.0000   0.0000

          k =-0.1133-0.4351 0.5439 (  1582 PWs)   bands (ev):

   -16.6896 -16.6705 -16.5845 -16.5349 -16.5225 -16.4953 -16.4709 -16.4501
   -16.3580 -16.3396  -1.6321   0.4070   4.1009   5.4683   9.7118  12.7146
    13.2508  14.7663

     occupation numbers 
     1.0000   1.0000   1.0000   1.0000   1.0000   1.0000   1.0000   1.0000
     1.0000   1.0000   1.0000   1.0000   1.0000   1.0000   0.0000   0.0000
     0.0000   0.0000

          k =-0.0567-0.3807 0.4895 (  1583 PWs)   bands (ev):

   -16.6911 -16.6713 -16.5849 -16.5459 -16.5214 -16.4884 -16.4667 -16.4514
   -16.3569 -16.3384  -1.8888   0.6957   4.0468   5.6866   9.9055  12.7111
    13.9196  14.5162

     occupation numbers 
     1.0000   1.0000   1.0000   1.0000   1.0000   1.0000   1.0000   1.0000
     1.0000   1.0000   1.0000   1.0000   1.0000   1.0000   0.0000   0.0000
     0.0000   0.0000

          k = 0.0000-0.3264 0.4351 (  1576 PWs)   bands (ev):

   -16.6882 -16.6708 -16.5953 -16.5573 -16.5278 -16.4842 -16.4488 -16.4459
   -16.3575 -16.3423  -2.3937   1.3091   4.2744   6.0223  10.1459  12.4008
    13.0610  14.5180

     occupation numbers 
     1.0000   1.0000   1.0000   1.0000   1.0000   1.0000   1.0000   1.0000
     1.0000   1.0000   1.0000   1.0000   1.0000   1.0000   0.0000   0.0000
     0.0000   0.0000

          k = 0.5666 0.1088-0.0000 (  1597 PWs)   bands (ev):

   -16.6691 -16.6679 -16.6099 -16.5354 -16.5310 -16.5004 -16.4569 -16.4239
   -16.3620 -16.3607  -2.0666   1.1433   4.8599   5.1490   8.9293   9.8170
    14.9042  16.2069

     occupation numbers 
     1.0000   1.0000   1.0000   1.0000   1.0000   1.0000   1.0000   1.0000
     1.0000   1.0000   1.0000   1.0000   1.0000   1.0000   0.0000   0.0000
     0.0000   0.0000

          k =-0.1133-0.5439 0.6527 (  1593 PWs)   bands (ev):

   -16.6786 -16.6703 -16.5910 -16.5363 -16.5235 -16.4941 -16.4704 -16.4427
   -16.3584 -16.3504  -1.5424   0.4832   4.4137   5.0255   9.2652  10.2928
    14.5999  16.2890

     occupation numbers 
     1.0000   1.0000   1.0000   1.0000   1.0000   1.0000   1.0000   1.0000
     1.0000   1.0000   1.0000   1.0000   1.0000   1.0000   0.0000   0.0000
     0.0000   0.0000

          k =-0.0567-0.4895 0.5983 (  1586 PWs)   bands (ev):

   -16.6870 -16.6716 -16.5786 -16.5280 -16.5142 -16.5001 -16.4830 -16.4543
   -16.3564 -16.3417  -1.1672   0.0449   4.0089   5.0999   9.4098  11.4920
    14.3236  15.4690

     occupation numbers 
     1.0000   1.0000   1.0000   1.0000   1.0000   1.0000   1.0000   1.0000
     1.0000   1.0000   1.0000   1.0000   1.0000   1.0000   0.0000   0.0000
     0.0000   0.0000

          k = 0.0000-0.4351 0.5439 (  1577 PWs)   bands (ev):

   -16.6915 -16.6720 -16.5776 -16.5262 -16.5080 -16.5070 -16.4844 -16.4551
   -16.3558 -16.3374  -1.3854   0.2408   3.8445   5.3321   9.6249  12.9655
    14.0429  14.1868

     occupation numbers 
     1.0000   1.0000   1.0000   1.0000   1.0000   1.0000   1.0000   1.0000
     1.0000   1.0000   1.0000   1.0000   1.0000   1.0000   0.0000   0.0000
     0.0000   0.0000

          k =-0.0567-0.5983 0.7071 (  1594 PWs)   bands (ev):

   -16.6713 -16.6710 -16.5882 -16.5614 -16.5092 -16.4825 -16.4720 -16.4457
   -16.3569 -16.3567  -1.0930  -0.0100   4.7216   4.8162   8.9676   9.2655
    16.1564  16.9665

     occupation numbers 
     1.0000   1.0000   1.0000   1.0000   1.0000   1.0000   1.0000   1.0000
     1.0000   1.0000   1.0000   1.0000   1.0000   1.0000   0.0000   0.0000
     0.0000   0.0000

          k = 0.0000-0.5439 0.6527 (  1592 PWs)   bands (ev):

   -16.6799 -16.6717 -16.5753 -16.5558 -16.4997 -16.4941 -16.4757 -16.4579
   -16.3560 -16.3483  -0.7120  -0.4020   4.3022   4.8624   9.1990  10.1158
    15.8316  15.8616

     occupation numbers 
     1.0000   1.0000   1.0000   1.0000   1.0000   1.0000   1.0000   1.0000
     1.0000   1.0000   1.0000   1.0000   1.0000   1.0000   0.0000   0.0000
     0.0000   0.0000

          k = 0.0000 0.2176 0.0000 (  1563 PWs)   bands (ev):

   -16.6573 -16.6498 -16.6471 -16.5934 -16.5725 -16.4529 -16.4055 -16.3958
   -16.3823 -16.3745  -4.1652   5.1010   6.9766   7.1432   9.8755  10.5896
    12.0559  12.4731

     occupation numbers 
     1.0000   1.0000   1.0000   1.0000   1.0000   1.0000   1.0000   1.0000
     1.0000   1.0000   1.0000   1.0000   1.0000   1.0000   0.0000   0.0000
     0.0000   0.0000

          k = 0.0567 0.2720-0.0544 (  1574 PWs)   bands (ev):

   -16.6634 -16.6543 -16.6450 -16.5852 -16.5594 -16.4667 -16.4143 -16.3912
   -16.3799 -16.3688  -3.9112   4.1772   6.5824   6.7631   9.8730  10.7588
    12.6144  13.0296

     occupation numbers 
     1.0000   1.0000   1.0000   1.0000   1.0000   1.0000   1.0000   1.0000
     1.0000   1.0000   1.0000   1.0000   1.0000   1.0000   0.0000   0.0000
     0.0000   0.0000

          k = 0.1133 0.3264-0.1088 (  1571 PWs)   bands (ev):

   -16.6707 -16.6599 -16.6367 -16.5756 -16.5486 -16.4765 -16.4244 -16.3973
   -16.3743 -16.3607  -3.5293   3.0676   6.0815   6.4905   9.9645  11.0393
    12.8601  13.2665

     occupation numbers 
     1.0000   1.0000   1.0000   1.0000   1.0000   1.0000   1.0000   1.0000
     1.0000   1.0000   1.0000   1.0000   1.0000   1.0000   0.0000   0.0000
     0.0000   0.0000

          k = 0.1700 0.3807-0.1632 (  1576 PWs)   bands (ev):

   -16.6765 -16.6647 -16.6266 -16.5665 -16.5427 -16.4805 -16.4341 -16.4081
   -16.3678 -16.3541  -3.0470   1.9797   5.6076   6.3494   9.8432  11.4670
    13.1544  13.3958

     occupation numbers 
     1.0000   1.0000   1.0000   1.0000   1.0000   1.0000   1.0000   1.0000
     1.0000   1.0000   1.0000   1.0000   1.0000   1.0000   0.0000   0.0000
     0.0000   0.0000

          k = 0.2266 0.4351-0.2176 (  1571 PWs)   bands (ev):

   -16.6799 -16.6684 -16.6168 -16.5587 -16.5429 -16.4777 -16.4428 -16.4190
   -16.3625 -16.3503  -2.5411   1.0711   5.2382   6.3320   9.7215  11.6320
    13.0839  14.2789

     occupation numbers 
     1.0000   1.0000   1.0000   1.0000   1.0000   1.0000   1.0000   1.0000
     1.0000   1.0000   1.0000   1.0000   1.0000   1.0000   0.0000   0.0000
     0.0000   0.0000

          k =-0.4533-0.2176 0.4351 (  1572 PWs)   bands (ev):

   -16.6806 -16.6710 -16.6097 -16.5537 -16.5475 -16.4700 -16.4493 -16.4276
   -16.3590 -16.3495  -2.2283   0.5959   4.9984   6.4342   9.6748  11.7195
    12.8699  15.3920

     occupation numbers 
     1.0000   1.0000   1.0000   1.0000   1.0000   1.0000   1.0000   1.0000
     1.0000   1.0000   1.0000   1.0000   1.0000   1.0000   0.0000   0.0000
     0.0000   0.0000

          k =-0.3966-0.1632 0.3807 (  1577 PWs)   bands (ev):

   -16.6786 -16.6722 -16.6071 -16.5596 -16.5473 -16.4642 -16.4473 -16.4326
   -16.3582 -16.3517  -2.3879   0.8455   4.9035   6.6463   9.7139  11.8603
    12.6383  15.4051

     occupation numbers 
     1.0000   1.0000   1.0000   1.0000   1.0000   1.0000   1.0000   1.0000
     1.0000   1.0000   1.0000   1.0000   1.0000   1.0000   0.0000   0.0000
     0.0000   0.0000

          k =-0.3400-0.1088 0.3264 (  1575 PWs)   bands (ev):

   -16.6750 -16.6705 -16.6104 -16.5693 -16.5487 -16.4624 -16.4360 -16.4317
   -16.3623 -16.3545  -2.8580   1.6487   4.9720   6.9489   9.8254  12.0183
    12.3768  14.3289

     occupation numbers 
     1.0000   1.0000   1.0000   1.0000   1.0000   1.0000   1.0000   1.0000
     1.0000   1.0000   1.0000   1.0000   1.0000   1.0000   0.0000   0.0000
     0.0000   0.0000

          k =-0.2833-0.0544 0.2720 (  1575 PWs)   bands (ev):

   -16.6715 -16.6643 -16.6187 -16.5780 -16.5558 -16.4570 -16.4320 -16.4172
   -16.3717 -16.3577  -3.3609   2.6841   5.2414   7.3052   9.9629  11.8103
    12.1758  13.4520

     occupation numbers 
     1.0000   1.0000   1.0000   1.0000   1.0000   1.0000   1.0000   1.0000
     1.0000   1.0000   1.0000   1.0000   1.0000   1.0009   0.0000   0.0000
     0.0000   0.0000

          k =-0.2266 0.0000 0.2176 (  1572 PWs)   bands (ev):

   -16.6669 -16.6559 -16.6291 -16.5856 -16.5672 -16.4472 -16.4264 -16.4029
   -16.3836 -16.3627  -3.7834   3.7286   5.7933   7.6433   9.9555  11.3256
    11.7375  13.1826

     occupation numbers 
     1.0000   1.0000   1.0000   1.0000   1.0000   1.0000   1.0000   1.0000
     1.0000   1.0000   1.0000   1.0000   1.0000   1.0538   0.0000   0.0000
     0.0000   0.0000

          k = 0.1133 0.2176 0.0000 (  1565 PWs)   bands (ev):

   -16.6623 -16.6496 -16.6416 -16.5911 -16.5720 -16.4505 -16.4117 -16.3924
   -16.3906 -16.3681  -4.0691   4.6264   6.5559   7.4818  10.2274  10.4682
    11.8291  12.7658

     occupation numbers 
     1.0000   1.0000   1.0000   1.0000   1.0000   1.0000   1.0000   1.0000
     1.0000   1.0000   1.0000   1.0000   1.0000   1.0120   0.0000   0.0000
     0.0000   0.0000

          k = 0.1700 0.2720-0.0544 (  1569 PWs)   bands (ev):

   -16.6685 -16.6571 -16.6339 -16.5828 -16.5599 -16.4615 -16.4201 -16.4009
   -16.3805 -16.3615  -3.7255   3.5181   5.9670   7.2118  10.1586  10.9802
    12.3264  13.0894

     occupation numbers 
     1.0000   1.0000   1.0000   1.0000   1.0000   1.0000   1.0000   1.0000
     1.0000   1.0000   1.0000   1.0000   1.0000   1.0002   0.0000   0.0000
     0.0000   0.0000

          k = 0.2266 0.3264-0.1088 (  1574 PWs)   bands (ev):

   -16.6729 -16.6642 -16.6248 -16.5742 -16.5512 -16.4682 -16.4278 -16.4125
   -16.3705 -16.3568  -3.2704   2.3695   5.5788   6.9033   9.9580  11.4278
    12.6468  13.5712

     occupation numbers 
     1.0000   1.0000   1.0000   1.0000   1.0000   1.0000   1.0000   1.0000
     1.0000   1.0000   1.0000   1.0000   1.0000   1.0000   0.0000   0.0000
     0.0000   0.0000

          k = 0.2833 0.3807-0.1632 (  1578 PWs)   bands (ev):

   -16.6752 -16.6698 -16.6170 -16.5663 -16.5476 -16.4695 -16.4355 -16.4223
   -16.3627 -16.3544  -2.7590   1.3550   5.3419   6.6593   9.7948  11.5737
    12.6651  14.5596

     occupation numbers 
     1.0000   1.0000   1.0000   1.0000   1.0000   1.0000   1.0000   1.0000
     1.0000   1.0000   1.0000   1.0000   1.0000   1.0000   0.0000   0.0000
     0.0000   0.0000

          k =-0.3966-0.2720 0.4895 (  1579 PWs)   bands (ev):

   -16.6754 -16.6736 -16.6124 -16.5602 -16.5485 -16.4671 -16.4428 -16.4268
   -16.3578 -16.3542  -2.3510   0.6860   5.2295   6.5271   9.7076  11.5880
    12.6238  15.5045

     occupation numbers 
     1.0000   1.0000   1.0000   1.0000   1.0000   1.0000   1.0000   1.0000
     1.0000   1.0000   1.0000   1.0000   1.0000   1.0000   0.0000   0.0000
     0.0000   0.0000

          k = 0.3400 0.2176 0.0000 (  1580 PWs)   bands (ev):

   -16.6699 -16.6639 -16.6173 -16.5760 -16.5537 -16.4607 -16.4317 -16.4185
   -16.3723 -16.3599  -3.3159   2.7730   5.0981   6.9726  10.4502  10.8044
    12.9146  13.2323

     occupation numbers 
     1.0000   1.0000   1.0000   1.0000   1.0000   1.0000   1.0000   1.0000
     1.0000   1.0000   1.0000   1.0000   1.0000   1.0000   0.0000   0.0000
     0.0000   0.0000

          k = 0.3966 0.2720-0.0544 (  1580 PWs)   bands (ev):

   -16.6756 -16.6704 -16.6053 -16.5668 -16.5439 -16.4679 -16.4418 -16.4324
   -16.3621 -16.3546  -2.8326   1.8576   4.6356   6.6544  10.3368  11.3686
    12.8807  13.7990

     occupation numbers 
     1.0000   1.0000   1.0000   1.0000   1.0000   1.0000   1.0000   1.0000
     1.0000   1.0000   1.0000   1.0000   1.0000   1.0000   0.0000   0.0000
     0.0000   0.0000

          k =-0.2833-0.3807 0.5983 (  1584 PWs)   bands (ev):

   -16.6819 -16.6722 -16.5984 -16.5552 -16.5401 -16.4685 -16.4586 -16.4373
   -16.3578 -16.3483  -2.3293   1.0162   4.4616   6.3399  10.1803  11.5620
    13.3524  14.3241

     occupation numbers 
     1.0000   1.0000   1.0000   1.0000   1.0000   1.0000   1.0000   1.0000
     1.0000   1.0000   1.0000   1.0000   1.0000   1.0000   0.0000   0.0000
     0.0000   0.0000

          k =-0.2266-0.3264 0.5439 (  1579 PWs)   bands (ev):

   -16.6855 -16.6722 -16.5987 -16.5449 -16.5410 -16.4750 -16.4622 -16.4363
   -16.3572 -16.3443  -2.0288   0.5618   4.4938   6.1061  10.0779  11.5615
    13.6967  15.0682

     occupation numbers 
     1.0000   1.0000   1.0000   1.0000   1.0000   1.0000   1.0000   1.0000
     1.0000   1.0000   1.0000   1.0000   1.0000   1.0000   0.0000   0.0000
     0.0000   0.0000

          k =-0.1700-0.2720 0.4895 (  1579 PWs)   bands (ev):

   -16.6854 -16.6711 -16.6054 -16.5497 -16.5341 -16.4864 -16.4531 -16.4294
   -16.3584 -16.3445  -2.2148   0.8085   4.6875   5.9964  10.0511  11.5918
    13.6179  14.3467

     occupation numbers 
     1.0000   1.0000   1.0000   1.0000   1.0000   1.0000   1.0000   1.0000
     1.0000   1.0000   1.0000   1.0000   1.0000   1.0000   0.0000   0.0000
     0.0000   0.0000

          k =-0.1133-0.2176 0.4351 (  1581 PWs)   bands (ev):

   -16.6817 -16.6692 -16.6168 -16.5576 -16.5316 -16.4919 -16.4434 -16.4174
   -16.3610 -16.3490  -2.6986   1.5587   5.0162   6.0362  10.0972  11.5427
    12.8327  14.1744

     occupation numbers 
     1.0000   1.0000   1.0000   1.0000   1.0000   1.0000   1.0000   1.0000
     1.0000   1.0000   1.0000   1.0000   1.0000   1.0000   0.0000   0.0000
     0.0000   0.0000

          k =-0.0567-0.1632 0.3807 (  1579 PWs)   bands (ev):

   -16.6751 -16.6662 -16.6295 -16.5666 -16.5363 -16.4895 -16.4335 -16.4038
   -16.3646 -16.3571  -3.2013   2.4891   5.4656   6.2249  10.1341  11.0743
    12.6107  14.0660

     occupation numbers 
     1.0000   1.0000   1.0000   1.0000   1.0000   1.0000   1.0000   1.0000
     1.0000   1.0000   1.0000   1.0000   1.0000   1.0000   0.0000   0.0000
     0.0000   0.0000

          k = 0.0000-0.1088 0.3264 (  1579 PWs)   bands (ev):

   -16.6676 -16.6617 -16.6400 -16.5762 -16.5466 -16.4803 -16.4235 -16.3936
   -16.3682 -16.3679  -3.6174   3.4114   6.0394   6.4838   9.9158  10.8206
    12.7686  13.6542

     occupation numbers 
     1.0000   1.0000   1.0000   1.0000   1.0000   1.0000   1.0000   1.0000
     1.0000   1.0000   1.0000   1.0000   1.0000   1.0000   0.0000   0.0000
     0.0000   0.0000

          k = 0.4533 0.2176 0.0000 (  1587 PWs)   bands (ev):

   -16.6729 -16.6714 -16.6057 -16.5593 -16.5333 -16.4874 -16.4382 -16.4334
   -16.3612 -16.3571  -2.6812   1.8251   4.5899   6.0354  10.3974  10.9955
    12.4702  14.7733

     occupation numbers 
     1.0000   1.0000   1.0000   1.0000   1.0000   1.0000   1.0000   1.0000
     1.0000   1.0000   1.0000   1.0000   1.0000   1.0000   0.0000   0.0000
     0.0000   0.0000

          k =-0.2266-0.4351 0.6527 (  1585 PWs)   bands (ev):

   -16.6814 -16.6742 -16.5919 -16.5483 -16.5259 -16.4920 -16.4575 -16.4420
   -16.3557 -16.3487  -2.1684   1.0669   4.2331   5.7414  10.6401  11.4582
    12.4044  15.1552

     occupation numbers 
     1.0000   1.0000   1.0000   1.0000   1.0000   1.0000   1.0000   1.0000
     1.0000   1.0000   1.0000   1.0000   1.0000   1.0000   0.0000   0.0000
     0.0000   0.0000

          k =-0.1700-0.3807 0.5983 (  1582 PWs)   bands (ev):

   -16.6875 -16.6750 -16.5850 -16.5388 -16.5241 -16.4917 -16.4717 -16.4465
   -16.3540 -16.3418  -1.7581   0.5003   4.1233   5.5262  10.6712  11.5457
    13.3506  14.9005

     occupation numbers 
     1.0000   1.0000   1.0000   1.0000   1.0000   1.0000   1.0000   1.0000
     1.0000   1.0000   1.0000   1.0000   1.0000   1.0000   0.0000   0.0000
     0.0000   0.0000

          k =-0.1133-0.3264 0.5439 (  1580 PWs)   bands (ev):

   -16.6894 -16.6749 -16.5877 -16.5407 -16.5208 -16.4971 -16.4667 -16.4451
   -16.3538 -16.3398  -1.7957   0.5200   4.1963   5.4719  10.7368  11.4977
    13.7544  14.6430

     occupation numbers 
     1.0000   1.0000   1.0000   1.0000   1.0000   1.0000   1.0000   1.0000
     1.0000   1.0000   1.0000   1.0000   1.0000   1.0000   0.0000   0.0000
     0.0000   0.0000

          k =-0.0567-0.2720 0.4895 (  1589 PWs)   bands (ev):

   -16.6871 -16.6739 -16.5993 -16.5488 -16.5190 -16.5021 -16.4543 -16.4350
   -16.3551 -16.3428  -2.2427   1.0846   4.4284   5.6097  10.8270  11.4618
    12.5843  15.1893

     occupation numbers 
     1.0000   1.0000   1.0000   1.0000   1.0000   1.0000   1.0000   1.0000
     1.0000   1.0000   1.0000   1.0000   1.0000   1.0000   0.0000   0.0000
     0.0000   0.0000

          k = 0.0000-0.2176 0.4351 (  1582 PWs)   bands (ev):

   -16.6814 -16.6714 -16.6152 -16.5575 -16.5250 -16.4991 -16.4435 -16.4186
   -16.3580 -16.3498  -2.7578   1.8068   4.8435   5.9049  10.7985  11.0114
    12.3185  14.8607

     occupation numbers 
     1.0000   1.0000   1.0000   1.0000   1.0000   1.0000   1.0000   1.0000
     1.0000   1.0000   1.0000   1.0000   1.0000   1.0000   0.0000   0.0000
     0.0000   0.0000

          k =-0.1700-0.4895 0.7071 (  1596 PWs)   bands (ev):

   -16.6769 -16.6764 -16.5903 -16.5371 -16.5163 -16.5092 -16.4611 -16.4434
   -16.3530 -16.3529  -1.9038   0.8779   4.3181   5.1991  10.1700  10.7623
    13.0966  16.0494

     occupation numbers 
     1.0000   1.0000   1.0000   1.0000   1.0000   1.0000   1.0000   1.0000
     1.0000   1.0000   1.0000   1.0000   1.0000   1.0000   0.0000   0.0000
     0.0000   0.0000

          k =-0.1133-0.4351 0.6527 (  1586 PWs)   bands (ev):

   -16.6853 -16.6776 -16.5748 -16.5279 -16.5180 -16.5039 -16.4779 -16.4552
   -16.3511 -16.3436  -1.4189   0.2960   4.0716   4.9700  10.4896  11.6663
    12.7929  15.3144

     occupation numbers 
     1.0000   1.0000   1.0000   1.0000   1.0000   1.0000   1.0000   1.0000
     1.0000   1.0000   1.0000   1.0000   1.0000   1.0000   0.0000   0.0000
     0.0000   0.0000

          k =-0.0567-0.3807 0.5983 (  1579 PWs)   bands (ev):

   -16.6902 -16.6777 -16.5711 -16.5281 -16.5146 -16.5031 -16.4828 -16.4582
   -16.3507 -16.3385  -1.3081   0.1413   3.9794   4.9683  10.6687  12.4670
    13.1771  13.8462

     occupation numbers 
     1.0000   1.0000   1.0000   1.0000   1.0000   1.0000   1.0000   1.0000
     1.0000   1.0000   1.0000   1.0000   1.0000   1.0000   0.0000   0.0000
     0.0000   0.0000

          k = 0.0000-0.3264 0.5439 (  1587 PWs)   bands (ev):

   -16.6905 -16.6767 -16.5812 -16.5386 -16.5112 -16.5069 -16.4693 -16.4510
   -16.3519 -16.3385  -1.7240   0.5560   4.0778   5.2060  10.9049  12.1808
    12.6456  14.7024

     occupation numbers 
     1.0000   1.0000   1.0000   1.0000   1.0000   1.0000   1.0000   1.0000
     1.0000   1.0000   1.0000   1.0000   1.0000   1.0000   0.0000   0.0000
     0.0000   0.0000

          k =-0.0567-0.4895 0.7071 (  1590 PWs)   bands (ev):

   -16.6795 -16.6791 -16.5696 -16.5444 -16.5121 -16.4862 -16.4843 -16.4614
   -16.3493 -16.3489  -1.0200  -0.0775   4.3159   4.6087  10.1547  10.3642
    14.2771  15.5765

     occupation numbers 
     1.0000   1.0000   1.0000   1.0000   1.0000   1.0000   1.0000   1.0000
     1.0000   1.0000   1.0000   1.0000   1.0000   1.0000   0.0000   0.0000
     0.0000   0.0000

          k = 0.0000-0.4351 0.6527 (  1591 PWs)   bands (ev):

   -16.6867 -16.6791 -16.5610 -16.5363 -16.5098 -16.4961 -16.4872 -16.4674
   -16.3492 -16.3418  -0.8301  -0.2882   4.0843   4.6227  10.4168  11.5770
    13.9744  14.0462

     occupation numbers 
     1.0000   1.0000   1.0000   1.0000   1.0000   1.0000   1.0000   1.0000
     1.0000   1.0000   1.0000   1.0000   1.0000   1.0000   0.0000   0.0000
     0.0000   0.0000

          k = 0.0000 0.3264 0.0000 (  1582 PWs)   bands (ev):

   -16.6647 -16.6559 -16.6502 -16.5782 -16.5441 -16.4847 -16.4194 -16.3823
   -16.3754 -16.3712  -3.7031   3.6856   6.3093   6.4235   9.3375  10.8664
    13.2634  13.8299

     occupation numbers 
     1.0000   1.0000   1.0000   1.0000   1.0000   1.0000   1.0000   1.0000
     1.0000   1.0000   1.0000   1.0000   1.0000   1.0000   0.0000   0.0000
     0.0000   0.0000

          k = 0.0567 0.3807-0.0544 (  1578 PWs)   bands (ev):

   -16.6706 -16.6621 -16.6427 -16.5685 -16.5304 -16.4991 -16.4290 -16.3870
   -16.3720 -16.3618  -3.3631   2.8795   5.8864   6.1144   9.4059  10.7627
    13.5075  14.2122

     occupation numbers 
     1.0000   1.0000   1.0000   1.0000   1.0000   1.0000   1.0000   1.0000
     1.0000   1.0000   1.0000   1.0000   1.0000   1.0000   0.0000   0.0000
     0.0000   0.0000

          k = 0.1133 0.4351-0.1088 (  1580 PWs)   bands (ev):

   -16.6781 -16.6675 -16.6299 -16.5582 -16.5216 -16.5070 -16.4399 -16.4011
   -16.3645 -16.3525  -2.9099   1.9809   5.2739   5.9565   9.6121  11.1587
    13.2960  14.3514

     occupation numbers 
     1.0000   1.0000   1.0000   1.0000   1.0000   1.0000   1.0000   1.0000
     1.0000   1.0000   1.0000   1.0000   1.0000   1.0000   0.0000   0.0000
     0.0000   0.0000

          k = 0.1700 0.4895-0.1632 (  1584 PWs)   bands (ev):

   -16.6842 -16.6716 -16.6160 -16.5485 -16.5214 -16.5053 -16.4509 -16.4162
   -16.3584 -16.3456  -2.3947   1.1359   4.7203   5.9313   9.6447  12.0818
    13.1859  14.2278

     occupation numbers 
     1.0000   1.0000   1.0000   1.0000   1.0000   1.0000   1.0000   1.0000
     1.0000   1.0000   1.0000   1.0000   1.0000   1.0000   0.0000   0.0000
     0.0000   0.0000

          k =-0.5099-0.1632 0.4895 (  1581 PWs)   bands (ev):

   -16.6873 -16.6746 -16.6048 -16.5405 -16.5257 -16.4984 -16.4608 -16.4282
   -16.3541 -16.3423  -1.9757   0.5526   4.3224   6.0334   9.6941  12.5852
    13.8283  14.0346

     occupation numbers 
     1.0000   1.0000   1.0000   1.0000   1.0000   1.0000   1.0000   1.0000
     1.0000   1.0000   1.0000   1.0000   1.0000   1.0000   0.0000   0.0000
     0.0000   0.0000

          k =-0.4533-0.1088 0.4351 (  1577 PWs)   bands (ev):

   -16.6867 -16.6765 -16.5988 -16.5409 -16.5313 -16.4868 -16.4660 -16.4347
   -16.3518 -16.3434  -1.9826   0.5801   4.1188   6.2537   9.8262  12.6345
    13.6099  15.1190

     occupation numbers 
     1.0000   1.0000   1.0000   1.0000   1.0000   1.0000   1.0000   1.0000
     1.0000   1.0000   1.0000   1.0000   1.0000   1.0000   0.0000   0.0000
     0.0000   0.0000

          k =-0.3966-0.0544 0.3807 (  1578 PWs)   bands (ev):

   -16.6822 -16.6768 -16.5989 -16.5553 -16.5338 -16.4776 -16.4572 -16.4359
   -16.3518 -16.3490  -2.4027   1.1866   4.1513   6.5723  10.0181  12.6756
    13.2105  14.1627

     occupation numbers 
     1.0000   1.0000   1.0000   1.0000   1.0000   1.0000   1.0000   1.0000
     1.0000   1.0000   1.0000   1.0000   1.0000   1.0000   0.0000   0.0000
     0.0000   0.0000

          k =-0.3400 0.0000 0.3264 (  1584 PWs)   bands (ev):

   -16.6752 -16.6742 -16.6061 -16.5692 -16.5427 -16.4689 -16.4407 -16.4312
   -16.3595 -16.3534  -2.9120   1.9727   4.4973   6.9490  10.1617  12.3333
    12.9177  13.2358

     occupation numbers 
     1.0000   1.0000   1.0000   1.0000   1.0000   1.0000   1.0000   1.0000
     1.0000   1.0000   1.0000   1.0000   1.0000   1.0000   0.0000   0.0000
     0.0000   0.0000

          k = 0.1133 0.3264 0.0000 (  1572 PWs)   bands (ev):

   -16.6695 -16.6587 -16.6404 -16.5776 -16.5455 -16.4814 -16.4213 -16.3907
   -16.3788 -16.3616  -3.6125   3.3889   5.8967   6.6210   9.9505  10.9172
    13.1199  13.1334

     occupation numbers 
     1.0000   1.0000   1.0000   1.0000   1.0000   1.0000   1.0000   1.0000
     1.0000   1.0000   1.0000   1.0000   1.0000   1.0000   0.0000   0.0000
     0.0000   0.0000

          k = 0.1700 0.3807-0.0544 (  1577 PWs)   bands (ev):

   -16.6754 -16.6662 -16.6292 -16.5683 -16.5342 -16.4918 -16.4309 -16.4033
   -16.3682 -16.3548  -3.1930   2.4515   5.3230   6.3481  10.2171  11.2262
    12.9312  13.5950

     occupation numbers 
     1.0000   1.0000   1.0000   1.0000   1.0000   1.0000   1.0000   1.0000
     1.0000   1.0000   1.0000   1.0000   1.0000   1.0000   0.0000   0.0000
     0.0000   0.0000

          k = 0.2266 0.4351-0.1088 (  1576 PWs)   bands (ev):

   -16.6804 -16.6721 -16.6170 -16.5590 -16.5286 -16.4954 -16.4412 -16.4167
   -16.3595 -16.3493  -2.6901   1.5158   4.8920   6.1252  10.2381  11.8123
    13.0450  13.7700

     occupation numbers 
     1.0000   1.0000   1.0000   1.0000   1.0000   1.0000   1.0000   1.0000
     1.0000   1.0000   1.0000   1.0000   1.0000   1.0000   0.0000   0.0000
     0.0000   0.0000

          k =-0.4533-0.2176 0.5439 (  1574 PWs)   bands (ev):

   -16.6835 -16.6760 -16.6073 -16.5511 -16.5292 -16.4923 -16.4512 -16.4269
   -16.3537 -16.3462  -2.2129   0.7700   4.5989   6.0360  10.2421  11.9390
    13.4970  14.2272

     occupation numbers 
     1.0000   1.0000   1.0000   1.0000   1.0000   1.0000   1.0000   1.0000
     1.0000   1.0000   1.0000   1.0000   1.0000   1.0000   0.0000   0.0000
     0.0000   0.0000

          k =-0.3966-0.1632 0.4895 (  1578 PWs)   bands (ev):

   -16.6838 -16.6780 -16.6025 -16.5489 -16.5316 -16.4873 -16.4557 -16.4321
   -16.3507 -16.3464  -2.0450   0.5381   4.4473   6.0974  10.3117  11.9041
    13.4198  15.3322

     occupation numbers 
     1.0000   1.0000   1.0000   1.0000   1.0000   1.0000   1.0000   1.0000
     1.0000   1.0000   1.0000   1.0000   1.0000   1.0000   0.0000   0.0000
     0.0000   0.0000

          k =-0.3400-0.1088 0.4351 (  1578 PWs)   bands (ev):

   -16.6809 -16.6783 -16.6039 -16.5562 -16.5322 -16.4854 -16.4480 -16.4327
   -16.3508 -16.3499  -2.3590   0.9987   4.4570   6.2973  10.4405  11.8943
    13.2509  14.5166

     occupation numbers 
     1.0000   1.0000   1.0000   1.0000   1.0000   1.0000   1.0000   1.0000
     1.0000   1.0000   1.0000   1.0000   1.0000   1.0000   0.0000   0.0000
     0.0000   0.0000

          k =-0.2833-0.0544 0.3807 (  1576 PWs)   bands (ev):

   -16.6772 -16.6743 -16.6113 -16.5665 -16.5366 -16.4823 -16.4343 -16.4275
   -16.3588 -16.3517  -2.8643   1.8287   4.6689   6.6036  10.5872  11.7880
    12.9897  13.4695

     occupation numbers 
     1.0000   1.0000   1.0000   1.0000   1.0000   1.0000   1.0000   1.0000
     1.0000   1.0000   1.0000   1.0000   1.0000   1.0000   0.0000   0.0000
     0.0000   0.0000

          k =-0.2266 0.0000 0.3264 (  1570 PWs)   bands (ev):

   -16.6737 -16.6658 -16.6228 -16.5756 -16.5467 -16.4738 -16.4267 -16.4126
   -16.3701 -16.3557  -3.3446   2.7284   5.1539   6.9524  10.6209  11.2865
    12.7642  12.9485

     occupation numbers 
     1.0000   1.0000   1.0000   1.0000   1.0000   1.0000   1.0000   1.0000
     1.0000   1.0000   1.0000   1.0000   1.0000   1.0000   0.0000   0.0000
     0.0000   0.0000

          k =-0.2833-0.3807 0.7071 (  1575 PWs)   bands (ev):

   -16.6814 -16.6766 -16.5940 -16.5528 -16.5314 -16.4775 -16.4640 -16.4384
   -16.3519 -16.3500  -2.3387   1.2265   4.0579   6.3086  10.3748  11.9818
    12.8842  14.6074

     occupation numbers 
     1.0000   1.0000   1.0000   1.0000   1.0000   1.0000   1.0000   1.0000
     1.0000   1.0000   1.0000   1.0000   1.0000   1.0000   0.0000   0.0000
     0.0000   0.0000

          k =-0.2266-0.3264 0.6527 (  1579 PWs)   bands (ev):

   -16.6875 -16.6776 -16.5902 -16.5345 -16.5249 -16.4885 -16.4796 -16.4407
   -16.3506 -16.3424  -1.8552   0.5977   3.8769   5.9683  10.1619  12.3677
    13.6325  14.8758

     occupation numbers 
     1.0000   1.0000   1.0000   1.0000   1.0000   1.0000   1.0000   1.0000
     1.0000   1.0000   1.0000   1.0000   1.0000   1.0000   0.0000   0.0000
     0.0000   0.0000

          k =-0.1700-0.2720 0.5983 (  1581 PWs)   bands (ev):

   -16.6895 -16.6770 -16.5933 -16.5293 -16.5199 -16.5042 -16.4736 -16.4382
   -16.3512 -16.3396  -1.6647   0.3372   4.0096   5.7135   9.9761  12.4821
    13.6536  14.7305

     occupation numbers 
     1.0000   1.0000   1.0000   1.0000   1.0000   1.0000   1.0000   1.0000
     1.0000   1.0000   1.0000   1.0000   1.0000   1.0000   0.0000   0.0000
     0.0000   0.0000

          k =-0.1133-0.2176 0.5439 (  1586 PWs)   bands (ev):

   -16.6873 -16.6754 -16.6038 -16.5374 -16.5224 -16.5043 -16.4626 -16.4280
   -16.3535 -16.3419  -1.9898   0.7177   4.3802   5.5861   9.8749  12.0353
    12.9000  15.3230

     occupation numbers 
     1.0000   1.0000   1.0000   1.0000   1.0000   1.0000   1.0000   1.0000
     1.0000   1.0000   1.0000   1.0000   1.0000   1.0000   0.0000   0.0000
     0.0000   0.0000

          k =-0.0567-0.1632 0.4895 (  1577 PWs)   bands (ev):

   -16.6815 -16.6728 -16.6192 -16.5474 -16.5212 -16.5076 -16.4508 -16.4120
   -16.3571 -16.3484  -2.5057   1.4161   4.9182   5.6118   9.8059  10.9826
    13.1282  15.4584

     occupation numbers 
     1.0000   1.0000   1.0000   1.0000   1.0000   1.0000   1.0000   1.0000
     1.0000   1.0000   1.0000   1.0000   1.0000   1.0000   0.0000   0.0000
     0.0000   0.0000

          k = 0.0000-0.1088 0.4351 (  1580 PWs)   bands (ev):

   -16.6747 -16.6684 -16.6342 -16.5580 -16.5171 -16.5129 -16.4394 -16.3963
   -16.3627 -16.3570  -2.9864   2.1776   5.4944   5.8029   9.5207  10.5879
    13.4188  15.1373

     occupation numbers 
     1.0000   1.0000   1.0000   1.0000   1.0000   1.0000   1.0000   1.0000
     1.0000   1.0000   1.0000   1.0000   1.0000   1.0000   0.0000   0.0000
     0.0000   0.0000

          k =-0.1700-0.3807 0.7071 (  1586 PWs)   bands (ev):

   -16.6856 -16.6799 -16.5797 -16.5327 -16.5127 -16.5039 -16.4800 -16.4488
   -16.3486 -16.3440  -1.6632   0.5067   3.8991   5.3869  11.1454  11.7622
    12.3884  15.1555

     occupation numbers 
     1.0000   1.0000   1.0000   1.0000   1.0000   1.0000   1.0000   1.0000
     1.0000   1.0000   1.0000   1.0000   1.0000   1.0000   0.0000   0.0000
     0.0000   0.0000

          k =-0.1133-0.3264 0.6527 (  1578 PWs)   bands (ev):

   -16.6892 -16.6810 -16.5758 -16.5234 -16.5167 -16.5030 -16.4867 -16.4523
   -16.3472 -16.3395  -1.3034   0.0852   3.9116   5.1129  10.9592  12.1446
    13.3944  13.6702

     occupation numbers 
     1.0000   1.0000   1.0000   1.0000   1.0000   1.0000   1.0000   1.0000
     1.0000   1.0000   1.0000   1.0000   1.0000   1.0000   0.0000   0.0000
     0.0000   0.0000

          k =-0.0567-0.2720 0.5983 (  1583 PWs)   bands (ev):

   -16.6891 -16.6803 -16.5835 -16.5303 -16.5267 -16.4946 -16.4764 -16.4466
   -16.3481 -16.3394  -1.4979   0.2586   4.1818   5.0138  10.8136  11.9906
    12.5410  14.9068

     occupation numbers 
     1.0000   1.0000   1.0000   1.0000   1.0000   1.0000   1.0000   1.0000
     1.0000   1.0000   1.0000   1.0000   1.0000   1.0000   0.0000   0.0000
     0.0000   0.0000

          k = 0.0000-0.2176 0.5439 (  1586 PWs)   bands (ev):

   -16.6857 -16.6778 -16.6013 -16.5368 -16.5290 -16.4983 -16.4631 -16.4300
   -16.3511 -16.3433  -2.0068   0.8105   4.5574   5.1888  10.5726  11.0066
    12.7845  16.0413

     occupation numbers 
     1.0000   1.0000   1.0000   1.0000   1.0000   1.0000   1.0000   1.0000
     1.0000   1.0000   1.0000   1.0000   1.0000   1.0000   0.0000   0.0000
     0.0000   0.0000

          k =-0.0567-0.3807 0.7071 (  1575 PWs)   bands (ev):

   -16.6863 -16.6839 -16.5589 -16.5327 -16.5142 -16.4966 -16.4890 -16.4663
   -16.3444 -16.3422  -0.9369  -0.2081   4.0669   4.5801  11.7142  11.7832
    12.5134  13.7736

     occupation numbers 
     1.0000   1.0000   1.0000   1.0000   1.0000   1.0000   1.0000   1.0000
     1.0000   1.0000   1.0000   1.0000   1.0000   1.0000   0.0000   0.0000
     0.0000   0.0000

          k = 0.0000-0.3264 0.6527 (  1580 PWs)   bands (ev):

   -16.6888 -16.6836 -16.5619 -16.5379 -16.5161 -16.4925 -16.4847 -16.4647
   -16.3447 -16.3395  -0.9805  -0.2092   4.1600   4.5434  11.8749  12.1091
    12.4317  13.3416

     occupation numbers 
     1.0000   1.0000   1.0000   1.0000   1.0000   1.0000   1.0000   1.0000
     1.0000   1.0000   1.0000   1.0000   1.0000   1.0000   0.0000   0.0000
     0.0000   0.0000

          k = 0.0000 0.4351 0.0000 (  1586 PWs)   bands (ev):

   -16.6717 -16.6649 -16.6435 -16.5585 -16.5184 -16.5132 -16.4379 -16.3844
   -16.3684 -16.3601  -3.0642   2.3173   5.7739   5.8484   8.9572  10.2938
    14.5421  15.2451

     occupation numbers 
     1.0000   1.0000   1.0000   1.0000   1.0000   1.0000   1.0000   1.0000
     1.0000   1.0000   1.0000   1.0000   1.0000   1.0000   0.0000   0.0000
     0.0000   0.0000

          k = 0.0567 0.4895-0.0544 (  1584 PWs)   bands (ev):

   -16.6766 -16.6701 -16.6330 -16.5473 -16.5324 -16.4995 -16.4490 -16.3967
   -16.3607 -16.3533  -2.6446   1.6049   5.3600   5.6396   9.0978  10.1673
    14.7011  15.5332

     occupation numbers 
     1.0000   1.0000   1.0000   1.0000   1.0000   1.0000   1.0000   1.0000
     1.0000   1.0000   1.0000   1.0000   1.0000   1.0000   0.0000   0.0000
     0.0000   0.0000

          k = 0.1133 0.5439-0.1088 (  1582 PWs)   bands (ev):

   -16.6836 -16.6742 -16.6169 -16.5392 -16.5357 -16.4919 -16.4610 -16.4141
   -16.3546 -16.3453  -2.1374   0.8880   4.7071   5.5889   9.2912  10.7932
    14.4542  15.5064

     occupation numbers 
     1.0000   1.0000   1.0000   1.0000   1.0000   1.0000   1.0000   1.0000
     1.0000   1.0000   1.0000   1.0000   1.0000   1.0000   0.0000   0.0000
     0.0000   0.0000

          k =-0.5666-0.1088 0.5439 (  1586 PWs)   bands (ev):

   -16.6894 -16.6769 -16.6025 -16.5352 -16.5252 -16.4941 -16.4726 -16.4292
   -16.3508 -16.3394  -1.6511   0.3062   4.1321   5.6709   9.3874  12.0201
    14.2176  15.2112

     occupation numbers 
     1.0000   1.0000   1.0000   1.0000   1.0000   1.0000   1.0000   1.0000
     1.0000   1.0000   1.0000   1.0000   1.0000   1.0000   0.0000   0.0000
     0.0000   0.0000

          k =-0.5099-0.0544 0.4895 (  1582 PWs)   bands (ev):

   -16.6914 -16.6784 -16.5952 -16.5228 -16.5160 -16.5078 -16.4806 -16.4366
   -16.3489 -16.3377  -1.5267   0.1924   3.7826   5.8774   9.5578  13.4409
    14.1140  14.6973

     occupation numbers 
     1.0000   1.0000   1.0000   1.0000   1.0000   1.0000   1.0000   1.0000
     1.0000   1.0000   1.0000   1.0000   1.0000   1.0000   0.0000   0.0000
     0.0000   0.0000

          k =-0.4533 0.0000 0.4351 (  1578 PWs)   bands (ev):

   -16.6889 -16.6786 -16.5943 -16.5344 -16.5205 -16.4959 -16.4760 -16.4377
   -16.3490 -16.3411  -1.9017   0.6370   3.7575   6.1904   9.8070  13.7055
    13.9208  14.3942

     occupation numbers 
     1.0000   1.0000   1.0000   1.0000   1.0000   1.0000   1.0000   1.0000
     1.0000   1.0000   1.0000   1.0000   1.0000   1.0000   0.0000   0.0000
     0.0000   0.0000

          k = 0.1133 0.4351 0.0000 (  1585 PWs)   bands (ev):

   -16.6756 -16.6680 -16.6341 -16.5587 -16.5160 -16.5140 -16.4386 -16.3957
   -16.3650 -16.3549  -2.9828   2.1575   5.3855   5.8854   9.5676  10.6360
    13.9971  14.4741

     occupation numbers 
     1.0000   1.0000   1.0000   1.0000   1.0000   1.0000   1.0000   1.0000
     1.0000   1.0000   1.0000   1.0000   1.0000   1.0000   0.0000   0.0000
     0.0000   0.0000

          k = 0.1700 0.4895-0.0544 (  1583 PWs)   bands (ev):

   -16.6815 -16.6744 -16.6195 -16.5482 -16.5233 -16.5056 -16.4499 -16.4114
   -16.3563 -16.3479  -2.5011   1.3844   4.8308   5.6494   9.8972  11.0660
    13.7199  14.8717

     occupation numbers 
     1.0000   1.0000   1.0000   1.0000   1.0000   1.0000   1.0000   1.0000
     1.0000   1.0000   1.0000   1.0000   1.0000   1.0000   0.0000   0.0000
     0.0000   0.0000

          k =-0.5099-0.1632 0.5983 (  1580 PWs)   bands (ev):

   -16.6872 -16.6782 -16.6052 -16.5389 -16.5241 -16.5021 -16.4616 -16.4263
   -16.3506 -16.3419  -1.9892   0.6826   4.3298   5.5697  10.0154  12.1681
    13.4576  14.8379

     occupation numbers 
     1.0000   1.0000   1.0000   1.0000   1.0000   1.0000   1.0000   1.0000
     1.0000   1.0000   1.0000   1.0000   1.0000   1.0000   0.0000   0.0000
     0.0000   0.0000

          k =-0.4533-0.1088 0.5439 (  1579 PWs)   bands (ev):

   -16.6901 -16.6803 -16.5963 -16.5340 -16.5150 -16.5075 -16.4703 -16.4354
   -16.3476 -16.3391  -1.6789   0.3089   3.9939   5.6535  10.1630  13.0160
    13.7852  14.6020

     occupation numbers 
     1.0000   1.0000   1.0000   1.0000   1.0000   1.0000   1.0000   1.0000
     1.0000   1.0000   1.0000   1.0000   1.0000   1.0000   0.0000   0.0000
     0.0000   0.0000

          k =-0.3966-0.0544 0.4895 (  1582 PWs)   bands (ev):

   -16.6889 -16.6809 -16.5947 -16.5390 -16.5152 -16.5043 -16.4679 -16.4376
   -16.3469 -16.3410  -1.8853   0.5751   3.8923   5.8803  10.3865  12.9407
    13.9790  14.6579

     occupation numbers 
     1.0000   1.0000   1.0000   1.0000   1.0000   1.0000   1.0000   1.0000
     1.0000   1.0000   1.0000   1.0000   1.0000   1.0000   0.0000   0.0000
     0.0000   0.0000

          k =-0.3400 0.0000 0.4351 (  1579 PWs)   bands (ev):

   -16.6833 -16.6799 -16.5999 -16.5539 -16.5233 -16.4948 -16.4514 -16.4353
   -16.3483 -16.3479  -2.3724   1.1977   4.0951   6.2180  10.6188  12.6138
    13.1788  14.0082

     occupation numbers 
     1.0000   1.0000   1.0000   1.0000   1.0000   1.0000   1.0000   1.0000
     1.0000   1.0000   1.0000   1.0000   1.0000   1.0000   0.0000   0.0000
     0.0000   0.0000

          k = 0.2266 0.4351 0.0000 (  1581 PWs)   bands (ev):

   -16.6796 -16.6754 -16.6156 -16.5590 -16.5213 -16.5038 -16.4407 -16.4178
   -16.3569 -16.3496  -2.7453   1.7406   4.6869   6.0231  10.9298  11.3138
    12.6853  14.2793

     occupation numbers 
     1.0000   1.0000   1.0000   1.0000   1.0000   1.0000   1.0000   1.0000
     1.0000   1.0000   1.0000   1.0000   1.0000   1.0000   0.0000   0.0000
     0.0000   0.0000

          k =-0.4533-0.2176 0.6527 (  1582 PWs)   bands (ev):

   -16.6842 -16.6811 -16.6024 -16.5485 -16.5150 -16.5083 -16.4535 -16.4306
   -16.3485 -16.3452  -2.2336   1.0050   4.2825   5.7072  11.1436  11.8633
    12.7854  14.7118

     occupation numbers 
     1.0000   1.0000   1.0000   1.0000   1.0000   1.0000   1.0000   1.0000
     1.0000   1.0000   1.0000   1.0000   1.0000   1.0000   0.0000   0.0000
     0.0000   0.0000

          k =-0.3966-0.1632 0.5983 (  1583 PWs)   bands (ev):

   -16.6881 -16.6827 -16.5946 -16.5404 -16.5137 -16.5077 -16.4647 -16.4372
   -16.3456 -16.3413  -1.8066   0.4462   4.0952   5.5256  11.1822  11.8627
    13.8727  14.7600

     occupation numbers 
     1.0000   1.0000   1.0000   1.0000   1.0000   1.0000   1.0000   1.0000
     1.0000   1.0000   1.0000   1.0000   1.0000   1.0000   0.0000   0.0000
     0.0000   0.0000

          k =-0.1700-0.2720 0.7071 (  1574 PWs)   bands (ev):

   -16.6908 -16.6796 -16.5873 -16.5179 -16.5143 -16.5072 -16.4889 -16.4430
   -16.3479 -16.3382  -1.3864   0.1090   3.7500   5.6193   9.9072  13.3452
    13.7641  13.8708

     occupation numbers 
     1.0000   1.0000   1.0000   1.0000   1.0000   1.0000   1.0000   1.0000
     1.0000   1.0000   1.0000   1.0000   1.0000   1.0000   0.0000   0.0000
     0.0000   0.0000

          k =-0.1133-0.2176 0.6527 (  1580 PWs)   bands (ev):

   -16.6899 -16.6796 -16.5901 -16.5416 -16.5142 -16.4866 -16.4855 -16.4409
   -16.3478 -16.3385  -1.2468  -0.0791   4.0236   5.3655   9.7037  11.9503
    13.9502  15.1590

     occupation numbers 
     1.0000   1.0000   1.0000   1.0000   1.0000   1.0000   1.0000   1.0000
     1.0000   1.0000   1.0000   1.0000   1.0000   1.0000   0.0000   0.0000
     0.0000   0.0000

          k =-0.0567-0.1632 0.5983 (  1583 PWs)   bands (ev):

   -16.6852 -16.6783 -16.6031 -16.5502 -16.5240 -16.4803 -16.4734 -16.4280
   -16.3497 -16.3430  -1.6693   0.3456   4.5632   5.2442   9.5859  10.6480
    14.2319  16.3288

     occupation numbers 
     1.0000   1.0000   1.0000   1.0000   1.0000   1.0000   1.0000   1.0000
     1.0000   1.0000   1.0000   1.0000   1.0000   1.0000   0.0000   0.0000
     0.0000   0.0000

          k = 0.0000-0.1088 0.5439 (  1586 PWs)   bands (ev):

   -16.6796 -16.6750 -16.6209 -16.5452 -16.5355 -16.4867 -16.4608 -16.4097
   -16.3541 -16.3490  -2.1928   0.9652   5.1369   5.3153   9.3172  10.0123
    14.5387  16.4932

     occupation numbers 
     1.0000   1.0000   1.0000   1.0000   1.0000   1.0000   1.0000   1.0000
     1.0000   1.0000   1.0000   1.0000   1.0000   1.0000   0.0000   0.0000
     0.0000   0.0000

          k =-0.0567-0.2720 0.7071 (  1586 PWs)   bands (ev):

   -16.6886 -16.6839 -16.5708 -16.5463 -16.5062 -16.4974 -16.4801 -16.4574
   -16.3439 -16.3396  -0.8760  -0.3856   4.1085   4.7915  10.7494  11.9968
    13.5607  13.6579

     occupation numbers 
     1.0000   1.0000   1.0000   1.0000   1.0000   1.0000   1.0000   1.0000
     1.0000   1.0000   1.0000   1.0000   1.0000   1.0000   0.0000   0.0000
     0.0000   0.0000

          k = 0.0000-0.2176 0.6527 (  1581 PWs)   bands (ev):

   -16.6863 -16.6834 -16.5816 -16.5571 -16.5125 -16.4871 -16.4720 -16.4484
   -16.3445 -16.3415  -1.1363  -0.1828   4.5079   4.7151  10.5382  10.7002
    13.8942  15.1641

     occupation numbers 
     1.0000   1.0000   1.0000   1.0000   1.0000   1.0000   1.0000   1.0000
     1.0000   1.0000   1.0000   1.0000   1.0000   1.0000   0.0000   0.0000
     0.0000   0.0000

          k = 0.0000 0.5439 0.0000 (  1578 PWs)   bands (ev):

   -16.6767 -16.6723 -16.6296 -16.5517 -16.5353 -16.4816 -16.4601 -16.4008
   -16.3568 -16.3517  -2.2574   1.0148   5.4076   5.4498   8.7796   9.6149
    15.8374  16.5928

     occupation numbers 
     1.0000   1.0000   1.0000   1.0000   1.0000   1.0000   1.0000   1.0000
     1.0000   1.0000   1.0000   1.0000   1.0000   1.0000   0.0001   0.0000
     0.0000   0.0000

          k = 0.0567 0.5983-0.0544 (  1585 PWs)   bands (ev):

   -16.6802 -16.6760 -16.6161 -16.5640 -16.5232 -16.4724 -16.4690 -16.4153
   -16.3517 -16.3474  -1.7682   0.3847   5.0374   5.3498   8.9755   9.6337
    15.9798  16.7466

     occupation numbers 
     1.0000   1.0000   1.0000   1.0000   1.0000   1.0000   1.0000   1.0000
     1.0000   1.0000   1.0000   1.0000   1.0000   1.0000   0.0000   0.0000
     0.0000   0.0000

          k =-0.6233-0.0544 0.5983 (  1580 PWs)   bands (ev):

   -16.6866 -16.6781 -16.6000 -16.5647 -16.5116 -16.4851 -16.4663 -16.4321
   -16.3487 -16.3412  -1.2465  -0.1696   4.4202   5.4017   9.1199  10.5462
    15.7207  16.3783

     occupation numbers 
     1.0000   1.0000   1.0000   1.0000   1.0000   1.0000   1.0000   1.0000
     1.0000   1.0000   1.0000   1.0000   1.0000   1.0000   0.0000   0.0000
     0.0000   0.0000

          k =-0.5666 0.0000 0.5439 (  1584 PWs)   bands (ev):

   -16.6912 -16.6789 -16.5943 -16.5463 -16.5075 -16.4911 -16.4825 -16.4377
   -16.3479 -16.3372  -1.1117  -0.2583   3.9283   5.5826   9.2903  11.9374
    15.3271  15.4506

     occupation numbers 
     1.0000   1.0000   1.0000   1.0000   1.0000   1.0000   1.0000   1.0000
     1.0000   1.0000   1.0000   1.0000   1.0000   1.0000   0.0000   0.0000
     0.0000   0.0000

          k = 0.1133 0.5439-0.0000 (  1585 PWs)   bands (ev):

   -16.6800 -16.6756 -16.6211 -16.5462 -16.5359 -16.4857 -16.4605 -16.4094
   -16.3537 -16.3485  -2.1914   0.9519   5.0597   5.3490   9.3698  10.0588
    15.2612  15.8092

     occupation numbers 
     1.0000   1.0000   1.0000   1.0000   1.0000   1.0000   1.0000   1.0000
     1.0000   1.0000   1.0000   1.0000   1.0000   1.0000   0.0000   0.0000
     0.0000   0.0000

          k =-0.5666-0.1088 0.6527 (  1579 PWs)   bands (ev):

   -16.6858 -16.6799 -16.6041 -16.5524 -16.5244 -16.4784 -16.4729 -16.4269
   -16.3480 -16.3424  -1.6704   0.3256   4.5200   5.2158   9.6862  10.7269
    14.9607  16.0305

     occupation numbers 
     1.0000   1.0000   1.0000   1.0000   1.0000   1.0000   1.0000   1.0000
     1.0000   1.0000   1.0000   1.0000   1.0000   1.0000   0.0000   0.0000
     0.0000   0.0000

          k =-0.5099-0.0544 0.5983 (  1584 PWs)   bands (ev):

   -16.6911 -16.6816 -16.5923 -16.5457 -16.5149 -16.4865 -16.4808 -16.4388
   -16.3457 -16.3373  -1.2591  -0.0985   4.0068   5.2975   9.8533  12.0465
    14.6515  15.5499

     occupation numbers 
     1.0000   1.0000   1.0000   1.0000   1.0000   1.0000   1.0000   1.0000
     1.0000   1.0000   1.0000   1.0000   1.0000   1.0000   0.0000   0.0000
     0.0000   0.0000

          k =-0.4533-0.0000 0.5439 (  1589 PWs)   bands (ev):

   -16.6924 -16.6819 -16.5906 -16.5264 -16.5200 -16.4976 -16.4838 -16.4403
   -16.3454 -16.3365  -1.4130   0.0914   3.7557   5.5291  10.0995  13.5691
    14.3713  14.3747

     occupation numbers 
     1.0000   1.0000   1.0000   1.0000   1.0000   1.0000   1.0000   1.0000
     1.0000   1.0000   1.0000   1.0000   1.0000   1.0000   0.0000   0.0000
     0.0000   0.0000

          k =-0.5099-0.1632 0.7071 (  1581 PWs)   bands (ev):

   -16.6845 -16.6827 -16.6033 -16.5372 -16.5336 -16.4942 -16.4624 -16.4277
   -16.3467 -16.3440  -2.0039   0.7587   4.4360   5.2319  10.7233  11.1707
    13.4600  15.6846

     occupation numbers 
     1.0000   1.0000   1.0000   1.0000   1.0000   1.0000   1.0000   1.0000
     1.0000   1.0000   1.0000   1.0000   1.0000   1.0000   0.0000   0.0000
     0.0000   0.0000

          k =-0.4533-0.1088 0.6527 (  1589 PWs)   bands (ev):

   -16.6896 -16.6855 -16.5887 -16.5385 -16.5254 -16.4891 -16.4754 -16.4413
   -16.3426 -16.3389  -1.5085   0.1991   4.1065   5.0060  11.0438  12.2438
    13.1480  15.4286

     occupation numbers 
     1.0000   1.0000   1.0000   1.0000   1.0000   1.0000   1.0000   1.0000
     1.0000   1.0000   1.0000   1.0000   1.0000   1.0000   0.0000   0.0000
     0.0000   0.0000

          k =-0.3966-0.0544 0.5983 (  1588 PWs)   bands (ev):

   -16.6918 -16.6859 -16.5839 -16.5345 -16.5209 -16.4932 -16.4803 -16.4456
   -16.3419 -16.3369  -1.3483   0.0354   3.9089   5.0480  11.2630  12.7894
    13.8094  14.0906

     occupation numbers 
     1.0000   1.0000   1.0000   1.0000   1.0000   1.0000   1.0000   1.0000
     1.0000   1.0000   1.0000   1.0000   1.0000   1.0000   0.0000   0.0000
     0.0000   0.0000

          k =-0.3400 0.0000 0.5439 (  1583 PWs)   bands (ev):

   -16.6893 -16.6850 -16.5898 -16.5344 -16.5231 -16.4996 -16.4705 -16.4409
   -16.3430 -16.3400  -1.7273   0.4519   3.9472   5.3055  11.5137  12.4326
    12.8626  15.1574

     occupation numbers 
     1.0000   1.0000   1.0000   1.0000   1.0000   1.0000   1.0000   1.0000
     1.0000   1.0000   1.0000   1.0000   1.0000   1.0000   0.0000   0.0000
     0.0000   0.0000

          k =-0.0567-0.1632 0.7071 (  1581 PWs)   bands (ev):

   -16.6862 -16.6806 -16.5879 -16.5699 -16.5012 -16.4961 -16.4606 -16.4438
   -16.3463 -16.3414  -0.8384  -0.5655   4.4403   5.1233   9.5122  10.5144
    15.4563  15.4738

     occupation numbers 
     1.0000   1.0000   1.0000   1.0000   1.0000   1.0000   1.0000   1.0000
     1.0000   1.0000   1.0000   1.0000   1.0000   1.0000   0.0000   0.0000
     0.0000   0.0000

          k = 0.0000-0.1088 0.6527 (  1583 PWs)   bands (ev):

   -16.6813 -16.6797 -16.6008 -16.5751 -16.5107 -16.4852 -16.4574 -16.4310
   -16.3476 -16.3457  -1.2531  -0.1903   4.9827   5.0409   9.3278   9.5628
    15.7719  16.8157

     occupation numbers 
     1.0000   1.0000   1.0000   1.0000   1.0000   1.0000   1.0000   1.0000
     1.0000   1.0000   1.0000   1.0000   1.0000   1.0000   0.0000   0.0000
     0.0000   0.0000

          k = 0.0000 0.6527 0.0000 (  1584 PWs)   bands (ev):

   -16.6786 -16.6771 -16.6090 -16.5825 -16.5103 -16.4847 -16.4511 -16.4236
   -16.3496 -16.3479  -1.2961  -0.1979   5.2275   5.2412   8.8258   9.1061
    17.0146  17.4565

     occupation numbers 
     1.0000   1.0000   1.0000   1.0000   1.0000   1.0000   1.0000   1.0000
     1.0000   1.0000   1.0000   1.0000   1.0000   1.0000   0.0000   0.0000
     0.0000   0.0000

          k =-0.6799 0.0000 0.6527 (  1580 PWs)   bands (ev):

   -16.6812 -16.6784 -16.5961 -16.5891 -16.4985 -16.4967 -16.4433 -16.4370
   -16.3480 -16.3456  -0.7933  -0.7067   4.9290   5.2523   8.9775   9.4025
    16.9697  17.0719

     occupation numbers 
     1.0000   1.0000   1.0000   1.0000   1.0000   1.0000   1.0000   1.0000
     1.0000   1.0000   1.0000   1.0000   1.0000   1.0000   0.0000   0.0000
     0.0000   0.0000

          k =-0.6233-0.0544 0.7071 (  1574 PWs)   bands (ev):

   -16.6818 -16.6804 -16.6014 -16.5759 -16.5108 -16.4851 -16.4565 -16.4304
   -16.3468 -16.3451  -1.2550  -0.1971   4.9383   5.0326   9.3814   9.6138
    16.4905  16.8434

     occupation numbers 
     1.0000   1.0000   1.0000   1.0000   1.0000   1.0000   1.0000   1.0000
     1.0000   1.0000   1.0000   1.0000   1.0000   1.0000   0.0000   0.0000
     0.0000   0.0000

          k =-0.5666 0.0000 0.6527 (  1577 PWs)   bands (ev):

   -16.6873 -16.6818 -16.5893 -16.5718 -16.5016 -16.4958 -16.4586 -16.4424
   -16.3450 -16.3403  -0.8485  -0.5739   4.4131   5.0710   9.6158  10.5946
    16.0655  16.1895

     occupation numbers 
     1.0000   1.0000   1.0000   1.0000   1.0000   1.0000   1.0000   1.0000
     1.0000   1.0000   1.0000   1.0000   1.0000   1.0000   0.0000   0.0000
     0.0000   0.0000

          k =-0.5099-0.0544 0.7071 (  1581 PWs)   bands (ev):

   -16.6872 -16.6868 -16.5849 -16.5613 -16.5126 -16.4870 -16.4680 -16.4450
   -16.3410 -16.3404  -1.1477  -0.2134   4.4299   4.6918  10.6961  10.8571
    14.6623  15.8319

     occupation numbers 
     1.0000   1.0000   1.0000   1.0000   1.0000   1.0000   1.0000   1.0000
     1.0000   1.0000   1.0000   1.0000   1.0000   1.0000   0.0000   0.0000
     0.0000   0.0000

          k =-0.4533 0.0000 0.6527 (  1586 PWs)   bands (ev):

   -16.6915 -16.6871 -16.5767 -16.5543 -16.5075 -16.4951 -16.4726 -16.4523
   -16.3404 -16.3366  -0.9129  -0.4168   4.0848   4.7193  10.9807  12.1881
    14.3201  14.3624

     occupation numbers 
     1.0000   1.0000   1.0000   1.0000   1.0000   1.0000   1.0000   1.0000
     1.0000   1.0000   1.0000   1.0000   1.0000   1.0000   0.0000   0.0000
     0.0000   0.0000

          k =-0.3966-0.0544 0.7071 (  1589 PWs)   bands (ev):

   -16.6913 -16.6895 -16.5727 -16.5498 -16.5133 -16.4916 -16.4757 -16.4551
   -16.3384 -16.3369  -1.0174  -0.2838   4.0935   4.5552  12.3845  12.3857
    12.8659  14.0412

     occupation numbers 
     1.0000   1.0000   1.0000   1.0000   1.0000   1.0000   1.0000   1.0000
     1.0000   1.0000   1.0000   1.0000   1.0000   1.0000   0.0000   0.0000
     0.0000   0.0000

     the Fermi energy is     8.1504 ev

!    total energy              =    -426.38041332 Ry
     estimated scf accuracy    <          8.7E-12 Ry
     smearing contrib. (-TS)   =       0.00011396 Ry
     internal energy E=F+TS    =    -426.38052727 Ry

     The total energy is F=E-TS. E is the sum of the following terms:
     one-electron contribution =    -280.03263082 Ry
     hartree contribution      =     165.52183918 Ry
     xc contribution           =    -115.26236594 Ry
     ewald contribution        =    -196.60736970 Ry

     convergence has been achieved in   9 iterations

     Forces acting on atoms (cartesian axes, Ry/au):

     atom    1 type  1   force =    -0.00000000    0.00000000   -0.00000000
     atom    2 type  1   force =    -0.00000000   -0.00000000    0.00000000
     The non-local contrib.  to forces
     atom    1 type  1   force =    -0.00000000   -0.00000000    0.00000000
     atom    2 type  1   force =     0.00000000    0.00000000    0.00000000
     The ionic contribution  to forces
     atom    1 type  1   force =     0.00000000   -0.00000000   -0.00000000
     atom    2 type  1   force =    -0.00000000    0.00000000   -0.00000000
     The local contribution  to forces
     atom    1 type  1   force =     0.00000000    0.00000000    0.00000000
     atom    2 type  1   force =    -0.00000000    0.00000000    0.00000000
     The core correction contribution to forces
     atom    1 type  1   force =     0.00000000    0.00000000    0.00000000
     atom    2 type  1   force =     0.00000000   -0.00000000    0.00000000
     The Hubbard contrib.    to forces
     atom    1 type  1   force =     0.00000000    0.00000000    0.00000000
     atom    2 type  1   force =     0.00000000    0.00000000    0.00000000
     The SCF correction term to forces
     atom    1 type  1   force =    -0.00000000   -0.00000000   -0.00000000
     atom    2 type  1   force =    -0.00000000   -0.00000000   -0.00000000

     Total force =     0.000000     Total SCF correction =     0.000000


     Computing stress (Cartesian axis) and pressure

          total   stress  (Ry/bohr**3)                   (kbar)     P=       -5.47
   0.00008212  -0.00000000   0.00000000           12.08       -0.00        0.00
   0.00000000  -0.00009680   0.00000000            0.00      -14.24        0.00
  -0.00000000   0.00000000  -0.00009680           -0.00        0.00      -14.24

     kinetic stress (kbar)   9904.34     -0.00      0.00
                               -0.00   9869.29      0.00
                                0.00     -0.00   9869.29

     local   stress (kbar)   3654.26      0.00     -0.00
                                0.00    703.21     -0.00
                               -0.00     -0.00    703.21

     nonloc. stress (kbar)   2943.24     -0.00     -0.00
                               -0.00   2956.97      0.00
                               -0.00      0.00   2956.97

     hartree stress (kbar)  25382.46     -0.00      0.00
                               -0.00  26585.06      0.00
                                0.00      0.00  26585.06

     exc-cor stress (kbar)  19355.00      0.00      0.00
                                0.00  19355.81     -0.00
                                0.00     -0.00  19355.81

     corecor stress (kbar) -28963.45      0.00      0.00
                                0.00 -28963.96      0.00
                                0.00      0.00 -28963.96

     ewald   stress (kbar) -32263.77     -0.00     -0.00
                               -0.00 -30520.62     -0.00
                               -0.00     -0.00 -30520.62

     hubbard stress (kbar)      0.00      0.00      0.00
                                0.00      0.00      0.00
                                0.00      0.00      0.00

     DFT-D   stress (kbar)      0.00      0.00      0.00
                                0.00      0.00      0.00
                                0.00      0.00      0.00

     XDM     stress (kbar)      0.00      0.00      0.00
                                0.00      0.00      0.00
                                0.00      0.00      0.00

     dft-nl  stress (kbar)      0.00      0.00      0.00
                                0.00      0.00      0.00
                                0.00      0.00      0.00

     TS-vdW  stress (kbar)      0.00      0.00      0.00
                                0.00      0.00      0.00
                                0.00      0.00      0.00

     MDB     stress (kbar)      0.00      0.00      0.00
                                0.00      0.00      0.00
                                0.00      0.00      0.00

     3D-RISM stress (kbar)      0.00      0.00      0.00
                                0.00      0.00      0.00
                                0.00      0.00      0.00


     Writing all to output data dir ./out/aiida.save/ :
     XML data file, charge density, pseudopotentials, collected wavefunctions

     init_run     :     19.25s CPU     10.00s WALL (       1 calls)
     electrons    :    587.65s CPU    287.90s WALL (       1 calls)
     forces       :      2.81s CPU      1.19s WALL (       1 calls)
     stress       :     13.62s CPU      6.57s WALL (       1 calls)

     Called by init_run:
     wfcinit      :     18.75s CPU      9.49s WALL (       1 calls)
     wfcinit:atom :      0.27s CPU      0.14s WALL (     196 calls)
     wfcinit:wfcr :     16.89s CPU      8.58s WALL (     196 calls)
     potinit      :      0.07s CPU      0.07s WALL (       1 calls)
     hinit0       :      0.24s CPU      0.24s WALL (       1 calls)

     Called by electrons:
     c_bands      :    492.78s CPU    238.19s WALL (      10 calls)
     sum_band     :     92.35s CPU     47.28s WALL (      10 calls)
     v_of_rho     :      0.65s CPU      0.64s WALL (      10 calls)
     v_h          :      0.03s CPU      0.03s WALL (      10 calls)
     v_xc         :      0.84s CPU      0.76s WALL (      12 calls)
     newd         :      1.92s CPU      1.87s WALL (      10 calls)
     mix_rho      :      0.06s CPU      0.06s WALL (      10 calls)

     Called by c_bands:
     init_us_2    :     11.45s CPU      4.76s WALL (    4508 calls)
     cegterg      :    472.81s CPU    228.72s WALL (    1960 calls)

     Called by sum_band:
     sum_band:wei :      0.17s CPU      0.08s WALL (      10 calls)
     sum_band:loo :     87.58s CPU     44.48s WALL (      10 calls)
     sum_band:buf :      0.54s CPU      0.19s WALL (    1960 calls)
     sum_band:ini :      4.89s CPU      2.10s WALL (    1960 calls)
     sum_band:cal :      3.51s CPU      1.79s WALL (    1960 calls)
     sum_band:bec :      0.15s CPU      0.05s WALL (    1960 calls)
     addusdens    :      4.50s CPU      2.63s WALL (      10 calls)
                                        0.00s GPU  (      10 calls)
     addusd:skk   :      0.01s CPU      0.01s WALL (      10 calls)
                                        0.00s GPU  (      10 calls)

     Called by *egterg:
     cdiaghg      :     13.56s CPU      4.82s WALL (    6046 calls)
     cegterg:over :     11.73s CPU      3.02s WALL (    4282 calls)
     cegterg:upda :      6.49s CPU      2.04s WALL (    4282 calls)
     cegterg:last :     11.08s CPU      3.06s WALL (    3687 calls)
     h_psi        :    427.96s CPU    218.84s WALL (    6438 calls)
     s_psi        :      7.62s CPU      2.26s WALL (    6438 calls)
     g_psi        :      2.19s CPU      0.66s WALL (    4282 calls)

     Called by h_psi:
     h_psi:calbec :     10.65s CPU      5.85s WALL (    6438 calls)
     vloc_psi     :    408.52s CPU    210.16s WALL (    6438 calls)
                                        0.00s GPU  (    6438 calls)
     add_vuspsi   :      7.47s CPU      2.33s WALL (    6438 calls)

     General routines
     calbec       :     18.75s CPU      9.56s WALL (   11730 calls)
     fft          :      0.51s CPU      0.45s WALL (     154 calls)
     ffts         :      0.04s CPU      0.03s WALL (      20 calls)
     fftw         :    437.94s CPU    227.34s WALL (  216388 calls)
     interpolate  :      0.04s CPU      0.04s WALL (      10 calls)

     Parallel routines

     PWSCF        :  10m23.66s CPU   5m 5.97s WALL


   This run was terminated on:   0:32:36  25Dec2025            

=------------------------------------------------------------------------------=
   JOB DONE.
=------------------------------------------------------------------------------=
