
     Program PWSCF v.7.4.1 starts on 25Dec2025 at  0: 8:34 

     This program is part of the open-source Quantum ESPRESSO suite
     for quantum simulation of materials; please cite
         "P. Giannozzi et al., J. Phys.:Condens. Matter 21 395502 (2009);
         "P. Giannozzi et al., J. Phys.:Condens. Matter 29 465901 (2017);
         "P. Giannozzi et al., J. Chem. Phys. 152 154105 (2020);
          URL http://www.quantum-espresso.org", 
     in publications or presentations arising from this work. More details at
     http://www.quantum-espresso.org/quote

     Parallel version (MPI), running on     1 processors

     MPI processes distributed on     1 nodes
     428 MiB available memory on the printing compute node when the environment starts

     Waiting for input...
     Reading input from standard input
Warning: card &CELL ignored

     Current dimensions of program PWSCF are:
     Max number of different atomic species (ntypx) = 10
     Max number of k-points (npk) =  40000
     Max angular momentum in pseudopotentials (lmaxx) =  4
     Message from routine setup:
     using ibrav=0 with symmetry is DISCOURAGED, use correct ibrav instead

     Subspace diagonalization in iterative solution of the eigenvalue problem:
     a serial algorithm will be used


     G-vector sticks info
     --------------------
     sticks:   dense  smooth     PW     G-vecs:    dense   smooth      PW
     Sum        1495     745    235                37157    13131    2253

     Using Slab Decomposition



     bravais-lattice index     =            0
     lattice parameter (alat)  =       7.7006  a.u.
     unit-cell volume          =     322.8875 (a.u.)^3
     number of atoms/cell      =            2
     number of atomic types    =            1
     number of electrons       =        28.00
     number of Kohn-Sham states=           18
     kinetic-energy cutoff     =      45.0000  Ry
     charge density cutoff     =     360.0000  Ry
     scf convergence threshold =      4.0E-10
     mixing beta               =       0.4000
     number of iterations used =            8  plain     mixing
     Exchange-correlation= SLA  PW   PSX  PSC
                           (   1   4  10   8   0   0   0)

     celldm(1)=   7.700556  celldm(2)=   0.000000  celldm(3)=   0.000000
     celldm(4)=   0.000000  celldm(5)=   0.000000  celldm(6)=   0.000000

     crystal axes: (cart. coord. in units of alat)
               a(1) = (   0.000000   0.707107   0.707107 )  
               a(2) = (   0.707107  -0.035355   0.707107 )  
               a(3) = (   0.707107   0.671751   0.000000 )  

     reciprocal axes: (cart. coord. in units 2 pi/alat)
               b(1) = ( -0.671751  0.707107  0.707107 )  
               b(2) = (  0.671751 -0.707107  0.707107 )  
               b(3) = (  0.742462  0.707107 -0.707107 )  


     PseudoPot. # 1 for Ge read from file:
     ./pseudo/ge_pbesol_v1.4.uspp.F.UPF
     MD5 check sum: 7bed0412183f5e553a4d27ec7023354d
     Pseudo is Ultrasoft + core correction, Zval = 14.0
     Generated by new atomic code, or converted to UPF format
     Using radial grid of  873 points,  6 beta functions with: 
                l(1) =   0
                l(2) =   0
                l(3) =   1
                l(4) =   1
                l(5) =   2
                l(6) =   2
     Q(r) pseudized with  8 coefficients,  rinner =    1.400   1.400   1.400
                                                       1.400   1.400

     atomic species   valence    mass     pseudopotential
     Ge               14.00    72.64000     Ge( 1.00)

      4 Sym. Ops., with inversion, found ( 2 have fractional translation)


                                    s                        frac. trans.

      isym =  1     identity                                     

 cryst.   s( 1) = (     1          0          0      )
                  (     0          1          0      )
                  (     0          0          1      )

 cart.    s( 1) = (  1.0000000  0.0000000  0.0000000 )
                  (  0.0000000  1.0000000 -0.0000000 )
                  (  0.0000000  0.0000000  1.0000000 )


      isym =  2     180 deg rotation - cart. axis [0,0,1]        

 cryst.   s( 2) = (     0          1         -1      )
                  (     1          0         -1      )
                  (     0          0         -1      )

 cart.    s( 2) = ( -1.0000000  0.0000000  0.0000000 )
                  (  0.0000000 -1.0000000  0.0000000 )
                  (  0.0000000  0.0000000  1.0000000 )


      isym =  3     inversion                                    

 cryst.   s( 3) = (    -1          0          0      )    f =( -0.2500000 )
                  (     0         -1          0      )       ( -0.2500000 )
                  (     0          0         -1      )       ( -0.2500000 )

 cart.    s( 3) = ( -1.0000000  0.0000000  0.0000000 )    f =( -0.3535534 )
                  (  0.0000000 -1.0000000  0.0000000 )       ( -0.3358757 )
                  (  0.0000000  0.0000000 -1.0000000 )       ( -0.3535534 )


      isym =  4     inv. 180 deg rotation - cart. axis [0,0,1]   

 cryst.   s( 4) = (     0         -1          1      )    f =( -0.2500000 )
                  (    -1          0          1      )       ( -0.2500000 )
                  (     0          0          1      )       ( -0.2500000 )

 cart.    s( 4) = (  1.0000000  0.0000000  0.0000000 )    f =( -0.3535534 )
                  (  0.0000000  1.0000000 -0.0000000 )       ( -0.3358757 )
                  (  0.0000000  0.0000000 -1.0000000 )       ( -0.3535534 )


   Cartesian axes

     site n.     atom                  positions (alat units)
         1        Ge     tau(   1) = (   0.7071068   0.6717514   0.7071068  )
         2        Ge     tau(   2) = (   1.0606602   1.0076272   1.0606602  )

   Crystallographic axes

     site n.     atom                  positions (cryst. coord.)
         1        Ge     tau(   1) = (  0.5000000  0.5000000  0.5000000  )
         2        Ge     tau(   2) = (  0.7500000  0.7500000  0.7500000  )

     number of k points=   595  Marzari-Vanderbilt smearing, width (Ry)=  0.0200
                       cart. coord. in units 2pi/alat
        k(    1) = (   0.0000000   0.0000000   0.0000000), wk =   0.0009103
        k(    2) = (   0.0571125   0.0543928  -0.0543928), wk =   0.0036413
        k(    3) = (   0.1142249   0.1087857  -0.1087857), wk =   0.0036413
        k(    4) = (   0.1713374   0.1631785  -0.1631785), wk =   0.0036413
        k(    5) = (   0.2284499   0.2175713  -0.2175713), wk =   0.0036413
        k(    6) = (   0.2855624   0.2719641  -0.2719641), wk =   0.0036413
        k(    7) = (   0.3426748   0.3263570  -0.3263570), wk =   0.0036413
        k(    8) = (   0.0516732  -0.0543928   0.0543928), wk =   0.0036413
        k(    9) = (   0.1087857   0.0000000   0.0000000), wk =   0.0018207
        k(   10) = (   0.1658981   0.0543928  -0.0543928), wk =   0.0036413
        k(   11) = (   0.2230106   0.1087857  -0.1087857), wk =   0.0036413
        k(   12) = (   0.2801231   0.1631785  -0.1631785), wk =   0.0036413
        k(   13) = (   0.3372355   0.2175713  -0.2175713), wk =   0.0036413
        k(   14) = (   0.3943480   0.2719641  -0.2719641), wk =   0.0036413
        k(   15) = (  -0.2910016  -0.3807498   0.3807498), wk =   0.0036413
        k(   16) = (  -0.2338892  -0.3263570   0.3263570), wk =   0.0036413
        k(   17) = (  -0.1767767  -0.2719641   0.2719641), wk =   0.0036413
        k(   18) = (  -0.1196642  -0.2175713   0.2175713), wk =   0.0036413
        k(   19) = (  -0.0625518  -0.1631785   0.1631785), wk =   0.0036413
        k(   20) = (  -0.0054393  -0.1087857   0.1087857), wk =   0.0036413
        k(   21) = (   0.1033464  -0.1087857   0.1087857), wk =   0.0036413
        k(   22) = (   0.1604588  -0.0543928   0.0543928), wk =   0.0036413
        k(   23) = (   0.2175713   0.0000000   0.0000000), wk =   0.0018207
        k(   24) = (   0.2746838   0.0543928  -0.0543928), wk =   0.0036413
        k(   25) = (   0.3317963   0.1087857  -0.1087857), wk =   0.0036413
        k(   26) = (   0.3889087   0.1631785  -0.1631785), wk =   0.0036413
        k(   27) = (   0.4460212   0.2175713  -0.2175713), wk =   0.0036413
        k(   28) = (  -0.2393284  -0.4351426   0.4351426), wk =   0.0036413
        k(   29) = (  -0.1822160  -0.3807498   0.3807498), wk =   0.0036413
        k(   30) = (  -0.1251035  -0.3263570   0.3263570), wk =   0.0036413
        k(   31) = (  -0.0679910  -0.2719641   0.2719641), wk =   0.0036413
        k(   32) = (  -0.0108786  -0.2175713   0.2175713), wk =   0.0036413
        k(   33) = (   0.0462339  -0.1631785   0.1631785), wk =   0.0036413
        k(   34) = (   0.1550196  -0.1631785   0.1631785), wk =   0.0036413
        k(   35) = (   0.2121320  -0.1087857   0.1087857), wk =   0.0036413
        k(   36) = (   0.2692445  -0.0543928   0.0543928), wk =   0.0036413
        k(   37) = (   0.3263570   0.0000000   0.0000000), wk =   0.0018207
        k(   38) = (   0.3834694   0.0543928  -0.0543928), wk =   0.0036413
        k(   39) = (   0.4405819   0.1087857  -0.1087857), wk =   0.0036413
        k(   40) = (   0.4976944   0.1631785  -0.1631785), wk =   0.0036413
        k(   41) = (  -0.1876553  -0.4895355   0.4895355), wk =   0.0036413
        k(   42) = (  -0.1305428  -0.4351426   0.4351426), wk =   0.0036413
        k(   43) = (  -0.0734303  -0.3807498   0.3807498), wk =   0.0036413
        k(   44) = (  -0.0163178  -0.3263570   0.3263570), wk =   0.0036413
        k(   45) = (   0.0407946  -0.2719641   0.2719641), wk =   0.0036413
        k(   46) = (   0.0979071  -0.2175713   0.2175713), wk =   0.0036413
        k(   47) = (   0.2066928  -0.2175713   0.2175713), wk =   0.0036413
        k(   48) = (   0.2638052  -0.1631785   0.1631785), wk =   0.0036413
        k(   49) = (   0.3209177  -0.1087857   0.1087857), wk =   0.0036413
        k(   50) = (   0.3780302  -0.0543928   0.0543928), wk =   0.0036413
        k(   51) = (   0.4351426   0.0000000   0.0000000), wk =   0.0018207
        k(   52) = (   0.4922551   0.0543928  -0.0543928), wk =   0.0036413
        k(   53) = (   0.5493676   0.1087857  -0.1087857), wk =   0.0036413
        k(   54) = (  -0.1359821  -0.5439283   0.5439283), wk =   0.0036413
        k(   55) = (  -0.0788696  -0.4895355   0.4895355), wk =   0.0036413
        k(   56) = (  -0.0217571  -0.4351426   0.4351426), wk =   0.0036413
        k(   57) = (   0.0353553  -0.3807498   0.3807498), wk =   0.0036413
        k(   58) = (   0.0924678  -0.3263570   0.3263570), wk =   0.0036413
        k(   59) = (   0.1495803  -0.2719641   0.2719641), wk =   0.0036413
        k(   60) = (   0.2583659  -0.2719641   0.2719641), wk =   0.0036413
        k(   61) = (   0.3154784  -0.2175713   0.2175713), wk =   0.0036413
        k(   62) = (   0.3725909  -0.1631785   0.1631785), wk =   0.0036413
        k(   63) = (   0.4297034  -0.1087857   0.1087857), wk =   0.0036413
        k(   64) = (   0.4868158  -0.0543928   0.0543928), wk =   0.0036413
        k(   65) = (   0.5439283   0.0000000   0.0000000), wk =   0.0018207
        k(   66) = (   0.6010408   0.0543928  -0.0543928), wk =   0.0036413
        k(   67) = (  -0.0843089  -0.5983211   0.5983211), wk =   0.0036413
        k(   68) = (  -0.0271964  -0.5439283   0.5439283), wk =   0.0036413
        k(   69) = (   0.0299161  -0.4895355   0.4895355), wk =   0.0036413
        k(   70) = (   0.0870285  -0.4351426   0.4351426), wk =   0.0036413
        k(   71) = (   0.1441410  -0.3807498   0.3807498), wk =   0.0036413
        k(   72) = (   0.2012535  -0.3263570   0.3263570), wk =   0.0036413
        k(   73) = (   0.3100391  -0.3263570   0.3263570), wk =   0.0036413
        k(   74) = (   0.3671516  -0.2719641   0.2719641), wk =   0.0036413
        k(   75) = (   0.4242641  -0.2175713   0.2175713), wk =   0.0036413
        k(   76) = (   0.4813765  -0.1631785   0.1631785), wk =   0.0036413
        k(   77) = (   0.5384890  -0.1087857   0.1087857), wk =   0.0036413
        k(   78) = (   0.5956015  -0.0543928   0.0543928), wk =   0.0036413
        k(   79) = (   0.6527140   0.0000000   0.0000000), wk =   0.0018207
        k(   80) = (  -0.0326357  -0.6527140   0.6527140), wk =   0.0036413
        k(   81) = (   0.0244768  -0.5983211   0.5983211), wk =   0.0036413
        k(   82) = (   0.0815892  -0.5439283   0.5439283), wk =   0.0036413
        k(   83) = (   0.1387017  -0.4895355   0.4895355), wk =   0.0036413
        k(   84) = (   0.1958142  -0.4351426   0.4351426), wk =   0.0036413
        k(   85) = (   0.2529267  -0.3807498   0.3807498), wk =   0.0036413
        k(   86) = (   0.0054393   0.1087857  -0.0000000), wk =   0.0018207
        k(   87) = (   0.0625518   0.1631785  -0.0543928), wk =   0.0036413
        k(   88) = (   0.1196642   0.2175713  -0.1087857), wk =   0.0036413
        k(   89) = (   0.1767767   0.2719641  -0.1631785), wk =   0.0036413
        k(   90) = (   0.2338892   0.3263570  -0.2175713), wk =   0.0036413
        k(   91) = (   0.2910016   0.3807498  -0.2719641), wk =   0.0036413
        k(   92) = (  -0.3943480  -0.2719641   0.3807498), wk =   0.0036413
        k(   93) = (  -0.3372355  -0.2175713   0.3263570), wk =   0.0036413
        k(   94) = (  -0.2801231  -0.1631785   0.2719641), wk =   0.0036413
        k(   95) = (  -0.2230106  -0.1087857   0.2175713), wk =   0.0036413
        k(   96) = (  -0.1658981  -0.0543928   0.1631785), wk =   0.0036413
        k(   97) = (  -0.1087857   0.0000000   0.1087857), wk =   0.0036413
        k(   98) = (   0.0000000   0.0000000   0.1087857), wk =   0.0018207
        k(   99) = (   0.1142249   0.1087857  -0.0000000), wk =   0.0018207
        k(  100) = (   0.1713374   0.1631785  -0.0543928), wk =   0.0036413
        k(  101) = (   0.2284499   0.2175713  -0.1087857), wk =   0.0036413
        k(  102) = (   0.2855624   0.2719641  -0.1631785), wk =   0.0036413
        k(  103) = (   0.3426748   0.3263570  -0.2175713), wk =   0.0036413
        k(  104) = (  -0.3426748  -0.3263570   0.4351426), wk =   0.0036413
        k(  105) = (  -0.2855624  -0.2719641   0.3807498), wk =   0.0036413
        k(  106) = (  -0.2284499  -0.2175713   0.3263570), wk =   0.0036413
        k(  107) = (  -0.1713374  -0.1631785   0.2719641), wk =   0.0036413
        k(  108) = (  -0.1142249  -0.1087857   0.2175713), wk =   0.0036413
        k(  109) = (  -0.0571125  -0.0543928   0.1631785), wk =   0.0036413
        k(  110) = (   0.0516732  -0.0543928   0.1631785), wk =   0.0036413
        k(  111) = (   0.2230106   0.1087857  -0.0000000), wk =   0.0018207
        k(  112) = (   0.2801231   0.1631785  -0.0543928), wk =   0.0036413
        k(  113) = (   0.3372355   0.2175713  -0.1087857), wk =   0.0036413
        k(  114) = (   0.3943480   0.2719641  -0.1631785), wk =   0.0036413
        k(  115) = (  -0.2910016  -0.3807498   0.4895355), wk =   0.0036413
        k(  116) = (  -0.2338892  -0.3263570   0.4351426), wk =   0.0036413
        k(  117) = (  -0.1767767  -0.2719641   0.3807498), wk =   0.0036413
        k(  118) = (  -0.1196642  -0.2175713   0.3263570), wk =   0.0036413
        k(  119) = (  -0.0625518  -0.1631785   0.2719641), wk =   0.0036413
        k(  120) = (  -0.0054393  -0.1087857   0.2175713), wk =   0.0036413
        k(  121) = (   0.1033464  -0.1087857   0.2175713), wk =   0.0036413
        k(  122) = (   0.1604588  -0.0543928   0.1631785), wk =   0.0036413
        k(  123) = (   0.2175713  -0.0000000   0.1087857), wk =   0.0036413
        k(  124) = (   0.3317963   0.1087857  -0.0000000), wk =   0.0018207
        k(  125) = (   0.3889087   0.1631785  -0.0543928), wk =   0.0036413
        k(  126) = (   0.4460212   0.2175713  -0.1087857), wk =   0.0036413
        k(  127) = (  -0.2393284  -0.4351426   0.5439283), wk =   0.0036413
        k(  128) = (  -0.1822160  -0.3807498   0.4895355), wk =   0.0036413
        k(  129) = (  -0.1251035  -0.3263570   0.4351426), wk =   0.0036413
        k(  130) = (  -0.0679910  -0.2719641   0.3807498), wk =   0.0036413
        k(  131) = (  -0.0108786  -0.2175713   0.3263570), wk =   0.0036413
        k(  132) = (   0.0462339  -0.1631785   0.2719641), wk =   0.0036413
        k(  133) = (   0.1550196  -0.1631785   0.2719641), wk =   0.0036413
        k(  134) = (   0.2121320  -0.1087857   0.2175713), wk =   0.0036413
        k(  135) = (   0.2692445  -0.0543928   0.1631785), wk =   0.0036413
        k(  136) = (   0.3263570   0.0000000   0.1087857), wk =   0.0036413
        k(  137) = (   0.4405819   0.1087857   0.0000000), wk =   0.0018207
        k(  138) = (   0.4976944   0.1631785  -0.0543928), wk =   0.0036413
        k(  139) = (  -0.1876553  -0.4895355   0.5983211), wk =   0.0036413
        k(  140) = (  -0.1305428  -0.4351426   0.5439283), wk =   0.0036413
        k(  141) = (  -0.0734303  -0.3807498   0.4895355), wk =   0.0036413
        k(  142) = (  -0.0163178  -0.3263570   0.4351426), wk =   0.0036413
        k(  143) = (   0.0407946  -0.2719641   0.3807498), wk =   0.0036413
        k(  144) = (   0.0979071  -0.2175713   0.3263570), wk =   0.0036413
        k(  145) = (   0.2066928  -0.2175713   0.3263570), wk =   0.0036413
        k(  146) = (   0.2638052  -0.1631785   0.2719641), wk =   0.0036413
        k(  147) = (   0.3209177  -0.1087857   0.2175713), wk =   0.0036413
        k(  148) = (   0.3780302  -0.0543928   0.1631785), wk =   0.0036413
        k(  149) = (   0.4351426   0.0000000   0.1087857), wk =   0.0036413
        k(  150) = (   0.5493676   0.1087857  -0.0000000), wk =   0.0018207
        k(  151) = (  -0.1359821  -0.5439283   0.6527140), wk =   0.0036413
        k(  152) = (  -0.0788696  -0.4895355   0.5983211), wk =   0.0036413
        k(  153) = (  -0.0217571  -0.4351426   0.5439283), wk =   0.0036413
        k(  154) = (   0.0353553  -0.3807498   0.4895355), wk =   0.0036413
        k(  155) = (   0.0924678  -0.3263570   0.4351426), wk =   0.0036413
        k(  156) = (   0.1495803  -0.2719641   0.3807498), wk =   0.0036413
        k(  157) = (   0.2583659  -0.2719641   0.3807498), wk =   0.0036413
        k(  158) = (   0.3154784  -0.2175713   0.3263570), wk =   0.0036413
        k(  159) = (   0.3725909  -0.1631785   0.2719641), wk =   0.0036413
        k(  160) = (   0.4297034  -0.1087857   0.2175713), wk =   0.0036413
        k(  161) = (   0.4868158  -0.0543928   0.1631785), wk =   0.0036413
        k(  162) = (   0.5439283   0.0000000   0.1087857), wk =   0.0036413
        k(  163) = (  -0.0843089  -0.5983211   0.7071068), wk =   0.0018207
        k(  164) = (  -0.0271964  -0.5439283   0.6527140), wk =   0.0036413
        k(  165) = (   0.0299161  -0.4895355   0.5983211), wk =   0.0036413
        k(  166) = (   0.0870285  -0.4351426   0.5439283), wk =   0.0036413
        k(  167) = (   0.1441410  -0.3807498   0.4895355), wk =   0.0036413
        k(  168) = (   0.2012535  -0.3263570   0.4351426), wk =   0.0036413
        k(  169) = (  -0.3617123   0.3807498  -0.2719641), wk =   0.0036413
        k(  170) = (  -0.3045998   0.4351426  -0.3263570), wk =   0.0036413
        k(  171) = (  -0.2474874   0.4895355  -0.3807498), wk =   0.0036413
        k(  172) = (  -0.1903749   0.5439283  -0.4351426), wk =   0.0036413
        k(  173) = (  -0.1332624   0.5983211  -0.4895355), wk =   0.0036413
        k(  174) = (  -0.0761500   0.6527140  -0.5439283), wk =   0.0036413
        k(  175) = (  -0.0190375   0.7071068  -0.5983211), wk =   0.0036413
        k(  176) = (  -0.6472747   0.1087857  -0.0000000), wk =   0.0018207
        k(  177) = (  -0.5901622   0.1631785  -0.0543928), wk =   0.0036413
        k(  178) = (  -0.5330497   0.2175713  -0.1087857), wk =   0.0036413
        k(  179) = (  -0.4759373   0.2719641  -0.1631785), wk =   0.0036413
        k(  180) = (  -0.4188248   0.3263570  -0.2175713), wk =   0.0036413
        k(  181) = (  -0.3100391   0.3263570  -0.2175713), wk =   0.0036413
        k(  182) = (  -0.2529267   0.3807498  -0.2719641), wk =   0.0036413
        k(  183) = (  -0.1958142   0.4351426  -0.3263570), wk =   0.0036413
        k(  184) = (  -0.1387017   0.4895355  -0.3807498), wk =   0.0036413
        k(  185) = (  -0.0815892   0.5439283  -0.4351426), wk =   0.0036413
        k(  186) = (  -0.0244768   0.5983211  -0.4895355), wk =   0.0036413
        k(  187) = (   0.0326357   0.6527140  -0.5439283), wk =   0.0036413
        k(  188) = (  -0.5384890   0.1087857   0.0000000), wk =   0.0018207
        k(  189) = (  -0.4813765   0.1631785  -0.0543928), wk =   0.0036413
        k(  190) = (  -0.4242641   0.2175713  -0.1087857), wk =   0.0036413
        k(  191) = (  -0.3671516   0.2719641  -0.1631785), wk =   0.0036413
        k(  192) = (  -0.2583659   0.2719641  -0.1631785), wk =   0.0036413
        k(  193) = (  -0.2012535   0.3263570  -0.2175713), wk =   0.0036413
        k(  194) = (  -0.1441410   0.3807498  -0.2719641), wk =   0.0036413
        k(  195) = (  -0.0870285   0.4351426  -0.3263570), wk =   0.0036413
        k(  196) = (  -0.0299161   0.4895355  -0.3807498), wk =   0.0036413
        k(  197) = (   0.0271964   0.5439283  -0.4351426), wk =   0.0036413
        k(  198) = (   0.0843089   0.5983211  -0.4895355), wk =   0.0036413
        k(  199) = (  -0.6010408  -0.0543928   0.1631785), wk =   0.0036413
        k(  200) = (  -0.4297034   0.1087857  -0.0000000), wk =   0.0018207
        k(  201) = (  -0.3725909   0.1631785  -0.0543928), wk =   0.0036413
        k(  202) = (  -0.3154784   0.2175713  -0.1087857), wk =   0.0036413
        k(  203) = (  -0.2066928   0.2175713  -0.1087857), wk =   0.0036413
        k(  204) = (  -0.1495803   0.2719641  -0.1631785), wk =   0.0036413
        k(  205) = (  -0.0924678   0.3263570  -0.2175713), wk =   0.0036413
        k(  206) = (  -0.0353553   0.3807498  -0.2719641), wk =   0.0036413
        k(  207) = (   0.0217571   0.4351426  -0.3263570), wk =   0.0036413
        k(  208) = (   0.0788696   0.4895355  -0.3807498), wk =   0.0036413
        k(  209) = (   0.1359821   0.5439283  -0.4351426), wk =   0.0036413
        k(  210) = (  -0.5493676  -0.1087857   0.2175713), wk =   0.0036413
        k(  211) = (  -0.4922551  -0.0543928   0.1631785), wk =   0.0036413
        k(  212) = (  -0.3209177   0.1087857   0.0000000), wk =   0.0018207
        k(  213) = (  -0.2638052   0.1631785  -0.0543928), wk =   0.0036413
        k(  214) = (  -0.1550196   0.1631785  -0.0543928), wk =   0.0036413
        k(  215) = (  -0.0979071   0.2175713  -0.1087857), wk =   0.0036413
        k(  216) = (  -0.0407946   0.2719641  -0.1631785), wk =   0.0036413
        k(  217) = (   0.0163178   0.3263570  -0.2175713), wk =   0.0036413
        k(  218) = (   0.0734303   0.3807498  -0.2719641), wk =   0.0036413
        k(  219) = (   0.1305428   0.4351426  -0.3263570), wk =   0.0036413
        k(  220) = (   0.1876553   0.4895355  -0.3807498), wk =   0.0036413
        k(  221) = (  -0.4976944  -0.1631785   0.2719641), wk =   0.0036413
        k(  222) = (  -0.4405819  -0.1087857   0.2175713), wk =   0.0036413
        k(  223) = (  -0.3834694  -0.0543928   0.1631785), wk =   0.0036413
        k(  224) = (  -0.2121320   0.1087857  -0.0000000), wk =   0.0018207
        k(  225) = (  -0.1033464   0.1087857   0.0000000), wk =   0.0018207
        k(  226) = (  -0.0462339   0.1631785  -0.0543928), wk =   0.0036413
        k(  227) = (   0.0108786   0.2175713  -0.1087857), wk =   0.0036413
        k(  228) = (   0.0679910   0.2719641  -0.1631785), wk =   0.0036413
        k(  229) = (   0.1251035   0.3263570  -0.2175713), wk =   0.0036413
        k(  230) = (   0.1822160   0.3807498  -0.2719641), wk =   0.0036413
        k(  231) = (   0.2393284   0.4351426  -0.3263570), wk =   0.0036413
        k(  232) = (  -0.4460212  -0.2175713   0.3263570), wk =   0.0036413
        k(  233) = (  -0.3889087  -0.1631785   0.2719641), wk =   0.0036413
        k(  234) = (  -0.3317963  -0.1087857   0.2175713), wk =   0.0036413
        k(  235) = (  -0.2746838  -0.0543928   0.1631785), wk =   0.0036413
        k(  236) = (   0.0108786   0.2175713  -0.0000000), wk =   0.0018207
        k(  237) = (   0.0679910   0.2719641  -0.0543928), wk =   0.0036413
        k(  238) = (   0.1251035   0.3263570  -0.1087857), wk =   0.0036413
        k(  239) = (   0.1822160   0.3807498  -0.1631785), wk =   0.0036413
        k(  240) = (   0.2393284   0.4351426  -0.2175713), wk =   0.0036413
        k(  241) = (  -0.4460212  -0.2175713   0.4351426), wk =   0.0036413
        k(  242) = (  -0.3889087  -0.1631785   0.3807498), wk =   0.0036413
        k(  243) = (  -0.3317963  -0.1087857   0.3263570), wk =   0.0036413
        k(  244) = (  -0.2746838  -0.0543928   0.2719641), wk =   0.0036413
        k(  245) = (  -0.2175713   0.0000000   0.2175713), wk =   0.0036413
        k(  246) = (   0.1196642   0.2175713  -0.0000000), wk =   0.0018207
        k(  247) = (   0.1767767   0.2719641  -0.0543928), wk =   0.0036413
        k(  248) = (   0.2338892   0.3263570  -0.1087857), wk =   0.0036413
        k(  249) = (   0.2910016   0.3807498  -0.1631785), wk =   0.0036413
        k(  250) = (  -0.3943480  -0.2719641   0.4895355), wk =   0.0036413
        k(  251) = (  -0.3372355  -0.2175713   0.4351426), wk =   0.0036413
        k(  252) = (  -0.2801231  -0.1631785   0.3807498), wk =   0.0036413
        k(  253) = (  -0.2230106  -0.1087857   0.3263570), wk =   0.0036413
        k(  254) = (  -0.1658981  -0.0543928   0.2719641), wk =   0.0036413
        k(  255) = (  -0.1087857   0.0000000   0.2175713), wk =   0.0036413
        k(  256) = (   0.0000000   0.0000000   0.2175713), wk =   0.0018207
        k(  257) = (   0.2284499   0.2175713  -0.0000000), wk =   0.0018207
        k(  258) = (   0.2855624   0.2719641  -0.0543928), wk =   0.0036413
        k(  259) = (   0.3426748   0.3263570  -0.1087857), wk =   0.0036413
        k(  260) = (  -0.3426748  -0.3263570   0.5439283), wk =   0.0036413
        k(  261) = (  -0.2855624  -0.2719641   0.4895355), wk =   0.0036413
        k(  262) = (  -0.2284499  -0.2175713   0.4351426), wk =   0.0036413
        k(  263) = (  -0.1713374  -0.1631785   0.3807498), wk =   0.0036413
        k(  264) = (  -0.1142249  -0.1087857   0.3263570), wk =   0.0036413
        k(  265) = (  -0.0571125  -0.0543928   0.2719641), wk =   0.0036413
        k(  266) = (   0.0516732  -0.0543928   0.2719641), wk =   0.0036413
        k(  267) = (   0.3372355   0.2175713   0.0000000), wk =   0.0018207
        k(  268) = (   0.3943480   0.2719641  -0.0543928), wk =   0.0036413
        k(  269) = (  -0.2910016  -0.3807498   0.5983211), wk =   0.0036413
        k(  270) = (  -0.2338892  -0.3263570   0.5439283), wk =   0.0036413
        k(  271) = (  -0.1767767  -0.2719641   0.4895355), wk =   0.0036413
        k(  272) = (  -0.1196642  -0.2175713   0.4351426), wk =   0.0036413
        k(  273) = (  -0.0625518  -0.1631785   0.3807498), wk =   0.0036413
        k(  274) = (  -0.0054393  -0.1087857   0.3263570), wk =   0.0036413
        k(  275) = (   0.1033464  -0.1087857   0.3263570), wk =   0.0036413
        k(  276) = (   0.1604588  -0.0543928   0.2719641), wk =   0.0036413
        k(  277) = (   0.4460212   0.2175713  -0.0000000), wk =   0.0018207
        k(  278) = (  -0.2393284  -0.4351426   0.6527140), wk =   0.0036413
        k(  279) = (  -0.1822160  -0.3807498   0.5983211), wk =   0.0036413
        k(  280) = (  -0.1251035  -0.3263570   0.5439283), wk =   0.0036413
        k(  281) = (  -0.0679910  -0.2719641   0.4895355), wk =   0.0036413
        k(  282) = (  -0.0108786  -0.2175713   0.4351426), wk =   0.0036413
        k(  283) = (   0.0462339  -0.1631785   0.3807498), wk =   0.0036413
        k(  284) = (   0.1550196  -0.1631785   0.3807498), wk =   0.0036413
        k(  285) = (   0.2121320  -0.1087857   0.3263570), wk =   0.0036413
        k(  286) = (   0.2692445  -0.0543928   0.2719641), wk =   0.0036413
        k(  287) = (   0.3263570   0.0000000   0.2175713), wk =   0.0036413
        k(  288) = (  -0.1876553  -0.4895355   0.7071068), wk =   0.0018207
        k(  289) = (  -0.1305428  -0.4351426   0.6527140), wk =   0.0036413
        k(  290) = (  -0.0734303  -0.3807498   0.5983211), wk =   0.0036413
        k(  291) = (  -0.0163178  -0.3263570   0.5439283), wk =   0.0036413
        k(  292) = (   0.0407946  -0.2719641   0.4895355), wk =   0.0036413
        k(  293) = (   0.0979071  -0.2175713   0.4351426), wk =   0.0036413
        k(  294) = (   0.2066928  -0.2175713   0.4351426), wk =   0.0036413
        k(  295) = (   0.2638052  -0.1631785   0.3807498), wk =   0.0036413
        k(  296) = (   0.3209177  -0.1087857   0.3263570), wk =   0.0036413
        k(  297) = (   0.3780302  -0.0543928   0.2719641), wk =   0.0036413
        k(  298) = (   0.4351426  -0.0000000   0.2175713), wk =   0.0036413
        k(  299) = (  -0.0788696  -0.4895355   0.7071068), wk =   0.0018207
        k(  300) = (  -0.0217571  -0.4351426   0.6527140), wk =   0.0036413
        k(  301) = (   0.0353553  -0.3807498   0.5983211), wk =   0.0036413
        k(  302) = (   0.0924678  -0.3263570   0.5439283), wk =   0.0036413
        k(  303) = (   0.1495803  -0.2719641   0.4895355), wk =   0.0036413
        k(  304) = (  -0.4133855   0.4351426  -0.2175713), wk =   0.0036413
        k(  305) = (  -0.3562730   0.4895355  -0.2719641), wk =   0.0036413
        k(  306) = (  -0.2991606   0.5439283  -0.3263570), wk =   0.0036413
        k(  307) = (  -0.2420481   0.5983211  -0.3807498), wk =   0.0036413
        k(  308) = (  -0.1849356   0.6527140  -0.4351426), wk =   0.0036413
        k(  309) = (  -0.1278231   0.7071068  -0.4895355), wk =   0.0036413
        k(  310) = (  -0.6418354   0.2175713  -0.0000000), wk =   0.0018207
        k(  311) = (  -0.5847229   0.2719641  -0.0543928), wk =   0.0036413
        k(  312) = (  -0.5276104   0.3263570  -0.1087857), wk =   0.0036413
        k(  313) = (  -0.4704980   0.3807498  -0.1631785), wk =   0.0036413
        k(  314) = (  -0.3617123   0.3807498  -0.1631785), wk =   0.0036413
        k(  315) = (  -0.3045998   0.4351426  -0.2175713), wk =   0.0036413
        k(  316) = (  -0.2474874   0.4895355  -0.2719641), wk =   0.0036413
        k(  317) = (  -0.1903749   0.5439283  -0.3263570), wk =   0.0036413
        k(  318) = (  -0.1332624   0.5983211  -0.3807498), wk =   0.0036413
        k(  319) = (  -0.0761500   0.6527140  -0.4351426), wk =   0.0036413
        k(  320) = (  -0.0190375   0.7071068  -0.4895355), wk =   0.0036413
        k(  321) = (  -0.5330497   0.2175713  -0.0000000), wk =   0.0018207
        k(  322) = (  -0.4759373   0.2719641  -0.0543928), wk =   0.0036413
        k(  323) = (  -0.4188248   0.3263570  -0.1087857), wk =   0.0036413
        k(  324) = (  -0.3100391   0.3263570  -0.1087857), wk =   0.0036413
        k(  325) = (  -0.2529267   0.3807498  -0.1631785), wk =   0.0036413
        k(  326) = (  -0.1958142   0.4351426  -0.2175713), wk =   0.0036413
        k(  327) = (  -0.1387017   0.4895355  -0.2719641), wk =   0.0036413
        k(  328) = (  -0.0815892   0.5439283  -0.3263570), wk =   0.0036413
        k(  329) = (  -0.0244768   0.5983211  -0.3807498), wk =   0.0036413
        k(  330) = (   0.0326357   0.6527140  -0.4351426), wk =   0.0036413
        k(  331) = (  -0.4242641   0.2175713  -0.0000000), wk =   0.0018207
        k(  332) = (  -0.3671516   0.2719641  -0.0543928), wk =   0.0036413
        k(  333) = (  -0.2583659   0.2719641  -0.0543928), wk =   0.0036413
        k(  334) = (  -0.2012535   0.3263570  -0.1087857), wk =   0.0036413
        k(  335) = (  -0.1441410   0.3807498  -0.1631785), wk =   0.0036413
        k(  336) = (  -0.0870285   0.4351426  -0.2175713), wk =   0.0036413
        k(  337) = (  -0.0299161   0.4895355  -0.2719641), wk =   0.0036413
        k(  338) = (   0.0271964   0.5439283  -0.3263570), wk =   0.0036413
        k(  339) = (   0.0843089   0.5983211  -0.3807498), wk =   0.0036413
        k(  340) = (  -0.6010408  -0.0543928   0.2719641), wk =   0.0036413
        k(  341) = (  -0.3154784   0.2175713  -0.0000000), wk =   0.0018207
        k(  342) = (  -0.2066928   0.2175713  -0.0000000), wk =   0.0018207
        k(  343) = (  -0.1495803   0.2719641  -0.0543928), wk =   0.0036413
        k(  344) = (  -0.0924678   0.3263570  -0.1087857), wk =   0.0036413
        k(  345) = (  -0.0353553   0.3807498  -0.1631785), wk =   0.0036413
        k(  346) = (   0.0217571   0.4351426  -0.2175713), wk =   0.0036413
        k(  347) = (   0.0788696   0.4895355  -0.2719641), wk =   0.0036413
        k(  348) = (   0.1359821   0.5439283  -0.3263570), wk =   0.0036413
        k(  349) = (  -0.5493676  -0.1087857   0.3263570), wk =   0.0036413
        k(  350) = (  -0.4922551  -0.0543928   0.2719641), wk =   0.0036413
        k(  351) = (  -0.0979071   0.2175713   0.0000000), wk =   0.0018207
        k(  352) = (  -0.0407946   0.2719641  -0.0543928), wk =   0.0036413
        k(  353) = (   0.0163178   0.3263570  -0.1087857), wk =   0.0036413
        k(  354) = (   0.0734303   0.3807498  -0.1631785), wk =   0.0036413
        k(  355) = (   0.1305428   0.4351426  -0.2175713), wk =   0.0036413
        k(  356) = (   0.1876553   0.4895355  -0.2719641), wk =   0.0036413
        k(  357) = (  -0.4976944  -0.1631785   0.3807498), wk =   0.0036413
        k(  358) = (  -0.4405819  -0.1087857   0.3263570), wk =   0.0036413
        k(  359) = (  -0.3834694  -0.0543928   0.2719641), wk =   0.0036413
        k(  360) = (   0.0163178   0.3263570  -0.0000000), wk =   0.0018207
        k(  361) = (   0.0734303   0.3807498  -0.0543928), wk =   0.0036413
        k(  362) = (   0.1305428   0.4351426  -0.1087857), wk =   0.0036413
        k(  363) = (   0.1876553   0.4895355  -0.1631785), wk =   0.0036413
        k(  364) = (  -0.4976944  -0.1631785   0.4895355), wk =   0.0036413
        k(  365) = (  -0.4405819  -0.1087857   0.4351426), wk =   0.0036413
        k(  366) = (  -0.3834694  -0.0543928   0.3807498), wk =   0.0036413
        k(  367) = (  -0.3263570   0.0000000   0.3263570), wk =   0.0036413
        k(  368) = (   0.1251035   0.3263570  -0.0000000), wk =   0.0018207
        k(  369) = (   0.1822160   0.3807498  -0.0543928), wk =   0.0036413
        k(  370) = (   0.2393284   0.4351426  -0.1087857), wk =   0.0036413
        k(  371) = (  -0.4460212  -0.2175713   0.5439283), wk =   0.0036413
        k(  372) = (  -0.3889087  -0.1631785   0.4895355), wk =   0.0036413
        k(  373) = (  -0.3317963  -0.1087857   0.4351426), wk =   0.0036413
        k(  374) = (  -0.2746838  -0.0543928   0.3807498), wk =   0.0036413
        k(  375) = (  -0.2175713   0.0000000   0.3263570), wk =   0.0036413
        k(  376) = (   0.2338892   0.3263570  -0.0000000), wk =   0.0018207
        k(  377) = (   0.2910016   0.3807498  -0.0543928), wk =   0.0036413
        k(  378) = (  -0.3943480  -0.2719641   0.5983211), wk =   0.0036413
        k(  379) = (  -0.3372355  -0.2175713   0.5439283), wk =   0.0036413
        k(  380) = (  -0.2801231  -0.1631785   0.4895355), wk =   0.0036413
        k(  381) = (  -0.2230106  -0.1087857   0.4351426), wk =   0.0036413
        k(  382) = (  -0.1658981  -0.0543928   0.3807498), wk =   0.0036413
        k(  383) = (  -0.1087857   0.0000000   0.3263570), wk =   0.0036413
        k(  384) = (   0.0000000   0.0000000   0.3263570), wk =   0.0018207
        k(  385) = (   0.3426748   0.3263570  -0.0000000), wk =   0.0018207
        k(  386) = (  -0.3426748  -0.3263570   0.6527140), wk =   0.0036413
        k(  387) = (  -0.2855624  -0.2719641   0.5983211), wk =   0.0036413
        k(  388) = (  -0.2284499  -0.2175713   0.5439283), wk =   0.0036413
        k(  389) = (  -0.1713374  -0.1631785   0.4895355), wk =   0.0036413
        k(  390) = (  -0.1142249  -0.1087857   0.4351426), wk =   0.0036413
        k(  391) = (  -0.0571125  -0.0543928   0.3807498), wk =   0.0036413
        k(  392) = (   0.0516732  -0.0543928   0.3807498), wk =   0.0036413
        k(  393) = (  -0.2910016  -0.3807498   0.7071068), wk =   0.0018207
        k(  394) = (  -0.2338892  -0.3263570   0.6527140), wk =   0.0036413
        k(  395) = (  -0.1767767  -0.2719641   0.5983211), wk =   0.0036413
        k(  396) = (  -0.1196642  -0.2175713   0.5439283), wk =   0.0036413
        k(  397) = (  -0.0625518  -0.1631785   0.4895355), wk =   0.0036413
        k(  398) = (  -0.0054393  -0.1087857   0.4351426), wk =   0.0036413
        k(  399) = (   0.1033464  -0.1087857   0.4351426), wk =   0.0036413
        k(  400) = (   0.1604588  -0.0543928   0.3807498), wk =   0.0036413
        k(  401) = (  -0.1822160  -0.3807498   0.7071068), wk =   0.0018207
        k(  402) = (  -0.1251035  -0.3263570   0.6527140), wk =   0.0036413
        k(  403) = (  -0.0679910  -0.2719641   0.5983211), wk =   0.0036413
        k(  404) = (  -0.0108786  -0.2175713   0.5439283), wk =   0.0036413
        k(  405) = (   0.0462339  -0.1631785   0.4895355), wk =   0.0036413
        k(  406) = (   0.1550196  -0.1631785   0.4895355), wk =   0.0036413
        k(  407) = (   0.2121320  -0.1087857   0.4351426), wk =   0.0036413
        k(  408) = (   0.2692445  -0.0543928   0.3807498), wk =   0.0036413
        k(  409) = (  -0.0734303  -0.3807498   0.7071068), wk =   0.0018207
        k(  410) = (  -0.0163178  -0.3263570   0.6527140), wk =   0.0036413
        k(  411) = (   0.0407946  -0.2719641   0.5983211), wk =   0.0036413
        k(  412) = (   0.0979071  -0.2175713   0.5439283), wk =   0.0036413
        k(  413) = (  -0.4650587   0.4895355  -0.1631785), wk =   0.0036413
        k(  414) = (  -0.4079462   0.5439283  -0.2175713), wk =   0.0036413
        k(  415) = (  -0.3508337   0.5983211  -0.2719641), wk =   0.0036413
        k(  416) = (  -0.2937213   0.6527140  -0.3263570), wk =   0.0036413
        k(  417) = (  -0.2366088   0.7071068  -0.3807498), wk =   0.0036413
        k(  418) = (  -0.6363961   0.3263570  -0.0000000), wk =   0.0018207
        k(  419) = (  -0.5792836   0.3807498  -0.0543928), wk =   0.0036413
        k(  420) = (  -0.5221712   0.4351426  -0.1087857), wk =   0.0036413
        k(  421) = (  -0.4133855   0.4351426  -0.1087857), wk =   0.0036413
        k(  422) = (  -0.3562730   0.4895355  -0.1631785), wk =   0.0036413
        k(  423) = (  -0.2991606   0.5439283  -0.2175713), wk =   0.0036413
        k(  424) = (  -0.2420481   0.5983211  -0.2719641), wk =   0.0036413
        k(  425) = (  -0.1849356   0.6527140  -0.3263570), wk =   0.0036413
        k(  426) = (  -0.1278231   0.7071068  -0.3807498), wk =   0.0036413
        k(  427) = (  -0.5276104   0.3263570   0.0000000), wk =   0.0018207
        k(  428) = (  -0.4704980   0.3807498  -0.0543928), wk =   0.0036413
        k(  429) = (  -0.3617123   0.3807498  -0.0543928), wk =   0.0036413
        k(  430) = (  -0.3045998   0.4351426  -0.1087857), wk =   0.0036413
        k(  431) = (  -0.2474874   0.4895355  -0.1631785), wk =   0.0036413
        k(  432) = (  -0.1903749   0.5439283  -0.2175713), wk =   0.0036413
        k(  433) = (  -0.1332624   0.5983211  -0.2719641), wk =   0.0036413
        k(  434) = (  -0.0761500   0.6527140  -0.3263570), wk =   0.0036413
        k(  435) = (  -0.0190375   0.7071068  -0.3807498), wk =   0.0036413
        k(  436) = (  -0.4188248   0.3263570  -0.0000000), wk =   0.0018207
        k(  437) = (  -0.3100391   0.3263570   0.0000000), wk =   0.0018207
        k(  438) = (  -0.2529267   0.3807498  -0.0543928), wk =   0.0036413
        k(  439) = (  -0.1958142   0.4351426  -0.1087857), wk =   0.0036413
        k(  440) = (  -0.1387017   0.4895355  -0.1631785), wk =   0.0036413
        k(  441) = (  -0.0815892   0.5439283  -0.2175713), wk =   0.0036413
        k(  442) = (  -0.0244768   0.5983211  -0.2719641), wk =   0.0036413
        k(  443) = (   0.0326357   0.6527140  -0.3263570), wk =   0.0036413
        k(  444) = (  -0.2012535   0.3263570  -0.0000000), wk =   0.0018207
        k(  445) = (  -0.1441410   0.3807498  -0.0543928), wk =   0.0036413
        k(  446) = (  -0.0870285   0.4351426  -0.1087857), wk =   0.0036413
        k(  447) = (  -0.0299161   0.4895355  -0.1631785), wk =   0.0036413
        k(  448) = (   0.0271964   0.5439283  -0.2175713), wk =   0.0036413
        k(  449) = (   0.0843089   0.5983211  -0.2719641), wk =   0.0036413
        k(  450) = (  -0.6010408  -0.0543928   0.3807498), wk =   0.0036413
        k(  451) = (  -0.0924678   0.3263570  -0.0000000), wk =   0.0018207
        k(  452) = (  -0.0353553   0.3807498  -0.0543928), wk =   0.0036413
        k(  453) = (   0.0217571   0.4351426  -0.1087857), wk =   0.0036413
        k(  454) = (   0.0788696   0.4895355  -0.1631785), wk =   0.0036413
        k(  455) = (   0.1359821   0.5439283  -0.2175713), wk =   0.0036413
        k(  456) = (  -0.5493676  -0.1087857   0.4351426), wk =   0.0036413
        k(  457) = (  -0.4922551  -0.0543928   0.3807498), wk =   0.0036413
        k(  458) = (   0.0217571   0.4351426  -0.0000000), wk =   0.0018207
        k(  459) = (   0.0788696   0.4895355  -0.0543928), wk =   0.0036413
        k(  460) = (   0.1359821   0.5439283  -0.1087857), wk =   0.0036413
        k(  461) = (  -0.5493676  -0.1087857   0.5439283), wk =   0.0036413
        k(  462) = (  -0.4922551  -0.0543928   0.4895355), wk =   0.0036413
        k(  463) = (  -0.4351426   0.0000000   0.4351426), wk =   0.0036413
        k(  464) = (   0.1305428   0.4351426  -0.0000000), wk =   0.0018207
        k(  465) = (   0.1876553   0.4895355  -0.0543928), wk =   0.0036413
        k(  466) = (  -0.4976944  -0.1631785   0.5983211), wk =   0.0036413
        k(  467) = (  -0.4405819  -0.1087857   0.5439283), wk =   0.0036413
        k(  468) = (  -0.3834694  -0.0543928   0.4895355), wk =   0.0036413
        k(  469) = (  -0.3263570   0.0000000   0.4351426), wk =   0.0036413
        k(  470) = (   0.2393284   0.4351426  -0.0000000), wk =   0.0018207
        k(  471) = (  -0.4460212  -0.2175713   0.6527140), wk =   0.0036413
        k(  472) = (  -0.3889087  -0.1631785   0.5983211), wk =   0.0036413
        k(  473) = (  -0.3317963  -0.1087857   0.5439283), wk =   0.0036413
        k(  474) = (  -0.2746838  -0.0543928   0.4895355), wk =   0.0036413
        k(  475) = (  -0.2175713   0.0000000   0.4351426), wk =   0.0036413
        k(  476) = (  -0.3943480  -0.2719641   0.7071068), wk =   0.0018207
        k(  477) = (  -0.3372355  -0.2175713   0.6527140), wk =   0.0036413
        k(  478) = (  -0.2801231  -0.1631785   0.5983211), wk =   0.0036413
        k(  479) = (  -0.2230106  -0.1087857   0.5439283), wk =   0.0036413
        k(  480) = (  -0.1658981  -0.0543928   0.4895355), wk =   0.0036413
        k(  481) = (  -0.1087857   0.0000000   0.4351426), wk =   0.0036413
        k(  482) = (   0.0000000   0.0000000   0.4351426), wk =   0.0018207
        k(  483) = (  -0.2855624  -0.2719641   0.7071068), wk =   0.0018207
        k(  484) = (  -0.2284499  -0.2175713   0.6527140), wk =   0.0036413
        k(  485) = (  -0.1713374  -0.1631785   0.5983211), wk =   0.0036413
        k(  486) = (  -0.1142249  -0.1087857   0.5439283), wk =   0.0036413
        k(  487) = (  -0.0571125  -0.0543928   0.4895355), wk =   0.0036413
        k(  488) = (   0.0516732  -0.0543928   0.4895355), wk =   0.0036413
        k(  489) = (  -0.1767767  -0.2719641   0.7071068), wk =   0.0018207
        k(  490) = (  -0.1196642  -0.2175713   0.6527140), wk =   0.0036413
        k(  491) = (  -0.0625518  -0.1631785   0.5983211), wk =   0.0036413
        k(  492) = (  -0.0054393  -0.1087857   0.5439283), wk =   0.0036413
        k(  493) = (   0.1033464  -0.1087857   0.5439283), wk =   0.0036413
        k(  494) = (   0.1604588  -0.0543928   0.4895355), wk =   0.0036413
        k(  495) = (  -0.0679910  -0.2719641   0.7071068), wk =   0.0018207
        k(  496) = (  -0.0108786  -0.2175713   0.6527140), wk =   0.0036413
        k(  497) = (   0.0462339  -0.1631785   0.5983211), wk =   0.0036413
        k(  498) = (  -0.5167319   0.5439283  -0.1087857), wk =   0.0036413
        k(  499) = (  -0.4596194   0.5983211  -0.1631785), wk =   0.0036413
        k(  500) = (  -0.4025069   0.6527140  -0.2175713), wk =   0.0036413
        k(  501) = (  -0.6309568   0.4351426  -0.0000000), wk =   0.0018207
        k(  502) = (  -0.5738443   0.4895355  -0.0543928), wk =   0.0036413
        k(  503) = (  -0.4650587   0.4895355  -0.0543928), wk =   0.0036413
        k(  504) = (  -0.4079462   0.5439283  -0.1087857), wk =   0.0036413
        k(  505) = (  -0.3508337   0.5983211  -0.1631785), wk =   0.0036413
        k(  506) = (  -0.2937213   0.6527140  -0.2175713), wk =   0.0036413
        k(  507) = (  -0.5221712   0.4351426  -0.0000000), wk =   0.0018207
        k(  508) = (  -0.4133855   0.4351426  -0.0000000), wk =   0.0018207
        k(  509) = (  -0.3562730   0.4895355  -0.0543928), wk =   0.0036413
        k(  510) = (  -0.2991606   0.5439283  -0.1087857), wk =   0.0036413
        k(  511) = (  -0.2420481   0.5983211  -0.1631785), wk =   0.0036413
        k(  512) = (  -0.1849356   0.6527140  -0.2175713), wk =   0.0036413
        k(  513) = (  -0.1278231   0.7071068  -0.2719641), wk =   0.0036413
        k(  514) = (  -0.3045998   0.4351426  -0.0000000), wk =   0.0018207
        k(  515) = (  -0.2474874   0.4895355  -0.0543928), wk =   0.0036413
        k(  516) = (  -0.1903749   0.5439283  -0.1087857), wk =   0.0036413
        k(  517) = (  -0.1332624   0.5983211  -0.1631785), wk =   0.0036413
        k(  518) = (  -0.0761500   0.6527140  -0.2175713), wk =   0.0036413
        k(  519) = (  -0.0190375   0.7071068  -0.2719641), wk =   0.0036413
        k(  520) = (  -0.1958142   0.4351426  -0.0000000), wk =   0.0018207
        k(  521) = (  -0.1387017   0.4895355  -0.0543928), wk =   0.0036413
        k(  522) = (  -0.0815892   0.5439283  -0.1087857), wk =   0.0036413
        k(  523) = (  -0.0244768   0.5983211  -0.1631785), wk =   0.0036413
        k(  524) = (   0.0326357   0.6527140  -0.2175713), wk =   0.0036413
        k(  525) = (  -0.0870285   0.4351426  -0.0000000), wk =   0.0018207
        k(  526) = (  -0.0299161   0.4895355  -0.0543928), wk =   0.0036413
        k(  527) = (   0.0271964   0.5439283  -0.1087857), wk =   0.0036413
        k(  528) = (   0.0843089   0.5983211  -0.1631785), wk =   0.0036413
        k(  529) = (  -0.6010408  -0.0543928   0.4895355), wk =   0.0036413
        k(  530) = (   0.0271964   0.5439283  -0.0000000), wk =   0.0018207
        k(  531) = (   0.0843089   0.5983211  -0.0543928), wk =   0.0036413
        k(  532) = (  -0.6010408  -0.0543928   0.5983211), wk =   0.0036413
        k(  533) = (  -0.5439283   0.0000000   0.5439283), wk =   0.0036413
        k(  534) = (   0.1359821   0.5439283  -0.0000000), wk =   0.0018207
        k(  535) = (  -0.5493676  -0.1087857   0.6527140), wk =   0.0036413
        k(  536) = (  -0.4922551  -0.0543928   0.5983211), wk =   0.0036413
        k(  537) = (  -0.4351426   0.0000000   0.5439283), wk =   0.0036413
        k(  538) = (  -0.4976944  -0.1631785   0.7071068), wk =   0.0018207
        k(  539) = (  -0.4405819  -0.1087857   0.6527140), wk =   0.0036413
        k(  540) = (  -0.3834694  -0.0543928   0.5983211), wk =   0.0036413
        k(  541) = (  -0.3263570   0.0000000   0.5439283), wk =   0.0036413
        k(  542) = (  -0.3889087  -0.1631785   0.7071068), wk =   0.0018207
        k(  543) = (  -0.3317963  -0.1087857   0.6527140), wk =   0.0036413
        k(  544) = (  -0.2746838  -0.0543928   0.5983211), wk =   0.0036413
        k(  545) = (  -0.2175713  -0.0000000   0.5439283), wk =   0.0036413
        k(  546) = (  -0.2801231  -0.1631785   0.7071068), wk =   0.0018207
        k(  547) = (  -0.2230106  -0.1087857   0.6527140), wk =   0.0036413
        k(  548) = (  -0.1658981  -0.0543928   0.5983211), wk =   0.0036413
        k(  549) = (  -0.1087857   0.0000000   0.5439283), wk =   0.0036413
        k(  550) = (   0.0000000   0.0000000   0.5439283), wk =   0.0018207
        k(  551) = (  -0.1713374  -0.1631785   0.7071068), wk =   0.0018207
        k(  552) = (  -0.1142249  -0.1087857   0.6527140), wk =   0.0036413
        k(  553) = (  -0.0571125  -0.0543928   0.5983211), wk =   0.0036413
        k(  554) = (   0.0516732  -0.0543928   0.5983211), wk =   0.0036413
        k(  555) = (  -0.0625518  -0.1631785   0.7071068), wk =   0.0018207
        k(  556) = (  -0.0054393  -0.1087857   0.6527140), wk =   0.0036413
        k(  557) = (  -0.5684051   0.5983211  -0.0543928), wk =   0.0036413
        k(  558) = (  -0.5112926   0.6527140  -0.1087857), wk =   0.0036413
        k(  559) = (  -0.6255175   0.5439283  -0.0000000), wk =   0.0018207
        k(  560) = (  -0.5167319   0.5439283  -0.0000000), wk =   0.0018207
        k(  561) = (  -0.4596194   0.5983211  -0.0543928), wk =   0.0036413
        k(  562) = (  -0.4025069   0.6527140  -0.1087857), wk =   0.0036413
        k(  563) = (  -0.4079462   0.5439283  -0.0000000), wk =   0.0018207
        k(  564) = (  -0.3508337   0.5983211  -0.0543928), wk =   0.0036413
        k(  565) = (  -0.2937213   0.6527140  -0.1087857), wk =   0.0036413
        k(  566) = (  -0.2991606   0.5439283  -0.0000000), wk =   0.0018207
        k(  567) = (  -0.2420481   0.5983211  -0.0543928), wk =   0.0036413
        k(  568) = (  -0.1849356   0.6527140  -0.1087857), wk =   0.0036413
        k(  569) = (  -0.1903749   0.5439283  -0.0000000), wk =   0.0018207
        k(  570) = (  -0.1332624   0.5983211  -0.0543928), wk =   0.0036413
        k(  571) = (  -0.0761500   0.6527140  -0.1087857), wk =   0.0036413
        k(  572) = (  -0.0190375   0.7071068  -0.1631785), wk =   0.0036413
        k(  573) = (  -0.0815892   0.5439283  -0.0000000), wk =   0.0018207
        k(  574) = (  -0.0244768   0.5983211  -0.0543928), wk =   0.0036413
        k(  575) = (   0.0326357   0.6527140  -0.1087857), wk =   0.0036413
        k(  576) = (   0.0326357   0.6527140  -0.0000000), wk =   0.0018207
        k(  577) = (  -0.6527140   0.0000000   0.6527140), wk =   0.0036413
        k(  578) = (  -0.6010408  -0.0543928   0.7071068), wk =   0.0018207
        k(  579) = (  -0.5439283   0.0000000   0.6527140), wk =   0.0036413
        k(  580) = (  -0.4922551  -0.0543928   0.7071068), wk =   0.0018207
        k(  581) = (  -0.4351426   0.0000000   0.6527140), wk =   0.0036413
        k(  582) = (  -0.3834694  -0.0543928   0.7071068), wk =   0.0018207
        k(  583) = (  -0.3263570   0.0000000   0.6527140), wk =   0.0036413
        k(  584) = (  -0.2746838  -0.0543928   0.7071068), wk =   0.0018207
        k(  585) = (  -0.2175713   0.0000000   0.6527140), wk =   0.0036413
        k(  586) = (  -0.1658981  -0.0543928   0.7071068), wk =   0.0018207
        k(  587) = (  -0.1087857   0.0000000   0.6527140), wk =   0.0036413
        k(  588) = (   0.0000000   0.0000000   0.6527140), wk =   0.0018207
        k(  589) = (  -0.0571125  -0.0543928   0.7071068), wk =   0.0018207
        k(  590) = (  -0.6200783   0.6527140  -0.0000000), wk =   0.0018207
        k(  591) = (  -0.5112926   0.6527140  -0.0000000), wk =   0.0018207
        k(  592) = (  -0.4025069   0.6527140  -0.0000000), wk =   0.0018207
        k(  593) = (  -0.2937213   0.6527140  -0.0000000), wk =   0.0018207
        k(  594) = (  -0.1849356   0.6527140  -0.0000000), wk =   0.0018207
        k(  595) = (  -0.0761500   0.6527140  -0.0000000), wk =   0.0018207

                       cryst. coord.
        k(    1) = (   0.0000000   0.0000000   0.0000000), wk =   0.0009103
        k(    2) = (   0.0000000  -0.0000000   0.0769231), wk =   0.0036413
        k(    3) = (   0.0000000  -0.0000000   0.1538462), wk =   0.0036413
        k(    4) = (   0.0000000  -0.0000000   0.2307692), wk =   0.0036413
        k(    5) = (   0.0000000  -0.0000000   0.3076923), wk =   0.0036413
        k(    6) = (   0.0000000  -0.0000000   0.3846154), wk =   0.0036413
        k(    7) = (   0.0000000  -0.0000000   0.4615385), wk =   0.0036413
        k(    8) = (   0.0000000   0.0769231  -0.0000000), wk =   0.0036413
        k(    9) = (   0.0000000   0.0769231   0.0769231), wk =   0.0018207
        k(   10) = (   0.0000000   0.0769231   0.1538462), wk =   0.0036413
        k(   11) = (   0.0000000   0.0769231   0.2307692), wk =   0.0036413
        k(   12) = (   0.0000000   0.0769231   0.3076923), wk =   0.0036413
        k(   13) = (   0.0000000   0.0769231   0.3846154), wk =   0.0036413
        k(   14) = (   0.0000000   0.0769231   0.4615385), wk =   0.0036413
        k(   15) = (   0.0000000   0.0769231  -0.4615385), wk =   0.0036413
        k(   16) = (   0.0000000   0.0769231  -0.3846154), wk =   0.0036413
        k(   17) = (   0.0000000   0.0769231  -0.3076923), wk =   0.0036413
        k(   18) = (   0.0000000   0.0769231  -0.2307692), wk =   0.0036413
        k(   19) = (   0.0000000   0.0769231  -0.1538462), wk =   0.0036413
        k(   20) = (   0.0000000   0.0769231  -0.0769231), wk =   0.0036413
        k(   21) = (   0.0000000   0.1538462  -0.0000000), wk =   0.0036413
        k(   22) = (   0.0000000   0.1538462   0.0769231), wk =   0.0036413
        k(   23) = (   0.0000000   0.1538462   0.1538462), wk =   0.0018207
        k(   24) = (   0.0000000   0.1538462   0.2307692), wk =   0.0036413
        k(   25) = (   0.0000000   0.1538462   0.3076923), wk =   0.0036413
        k(   26) = (   0.0000000   0.1538462   0.3846154), wk =   0.0036413
        k(   27) = (   0.0000000   0.1538462   0.4615385), wk =   0.0036413
        k(   28) = (   0.0000000   0.1538462  -0.4615385), wk =   0.0036413
        k(   29) = (   0.0000000   0.1538462  -0.3846154), wk =   0.0036413
        k(   30) = (   0.0000000   0.1538462  -0.3076923), wk =   0.0036413
        k(   31) = (   0.0000000   0.1538462  -0.2307692), wk =   0.0036413
        k(   32) = (   0.0000000   0.1538462  -0.1538462), wk =   0.0036413
        k(   33) = (   0.0000000   0.1538462  -0.0769231), wk =   0.0036413
        k(   34) = (   0.0000000   0.2307692  -0.0000000), wk =   0.0036413
        k(   35) = (   0.0000000   0.2307692   0.0769231), wk =   0.0036413
        k(   36) = (   0.0000000   0.2307692   0.1538462), wk =   0.0036413
        k(   37) = (   0.0000000   0.2307692   0.2307692), wk =   0.0018207
        k(   38) = (   0.0000000   0.2307692   0.3076923), wk =   0.0036413
        k(   39) = (   0.0000000   0.2307692   0.3846154), wk =   0.0036413
        k(   40) = (   0.0000000   0.2307692   0.4615385), wk =   0.0036413
        k(   41) = (   0.0000000   0.2307692  -0.4615385), wk =   0.0036413
        k(   42) = (   0.0000000   0.2307692  -0.3846154), wk =   0.0036413
        k(   43) = (   0.0000000   0.2307692  -0.3076923), wk =   0.0036413
        k(   44) = (   0.0000000   0.2307692  -0.2307692), wk =   0.0036413
        k(   45) = (   0.0000000   0.2307692  -0.1538462), wk =   0.0036413
        k(   46) = (   0.0000000   0.2307692  -0.0769231), wk =   0.0036413
        k(   47) = (   0.0000000   0.3076923  -0.0000000), wk =   0.0036413
        k(   48) = (   0.0000000   0.3076923   0.0769231), wk =   0.0036413
        k(   49) = (   0.0000000   0.3076923   0.1538462), wk =   0.0036413
        k(   50) = (   0.0000000   0.3076923   0.2307692), wk =   0.0036413
        k(   51) = (   0.0000000   0.3076923   0.3076923), wk =   0.0018207
        k(   52) = (   0.0000000   0.3076923   0.3846154), wk =   0.0036413
        k(   53) = (   0.0000000   0.3076923   0.4615385), wk =   0.0036413
        k(   54) = (   0.0000000   0.3076923  -0.4615385), wk =   0.0036413
        k(   55) = (   0.0000000   0.3076923  -0.3846154), wk =   0.0036413
        k(   56) = (   0.0000000   0.3076923  -0.3076923), wk =   0.0036413
        k(   57) = (   0.0000000   0.3076923  -0.2307692), wk =   0.0036413
        k(   58) = (   0.0000000   0.3076923  -0.1538462), wk =   0.0036413
        k(   59) = (   0.0000000   0.3076923  -0.0769231), wk =   0.0036413
        k(   60) = (   0.0000000   0.3846154  -0.0000000), wk =   0.0036413
        k(   61) = (   0.0000000   0.3846154   0.0769231), wk =   0.0036413
        k(   62) = (   0.0000000   0.3846154   0.1538462), wk =   0.0036413
        k(   63) = (   0.0000000   0.3846154   0.2307692), wk =   0.0036413
        k(   64) = (   0.0000000   0.3846154   0.3076923), wk =   0.0036413
        k(   65) = (   0.0000000   0.3846154   0.3846154), wk =   0.0018207
        k(   66) = (   0.0000000   0.3846154   0.4615385), wk =   0.0036413
        k(   67) = (   0.0000000   0.3846154  -0.4615385), wk =   0.0036413
        k(   68) = (   0.0000000   0.3846154  -0.3846154), wk =   0.0036413
        k(   69) = (   0.0000000   0.3846154  -0.3076923), wk =   0.0036413
        k(   70) = (   0.0000000   0.3846154  -0.2307692), wk =   0.0036413
        k(   71) = (   0.0000000   0.3846154  -0.1538462), wk =   0.0036413
        k(   72) = (   0.0000000   0.3846154  -0.0769231), wk =   0.0036413
        k(   73) = (   0.0000000   0.4615385  -0.0000000), wk =   0.0036413
        k(   74) = (   0.0000000   0.4615385   0.0769231), wk =   0.0036413
        k(   75) = (   0.0000000   0.4615385   0.1538462), wk =   0.0036413
        k(   76) = (   0.0000000   0.4615385   0.2307692), wk =   0.0036413
        k(   77) = (   0.0000000   0.4615385   0.3076923), wk =   0.0036413
        k(   78) = (   0.0000000   0.4615385   0.3846154), wk =   0.0036413
        k(   79) = (   0.0000000   0.4615385   0.4615385), wk =   0.0018207
        k(   80) = (   0.0000000   0.4615385  -0.4615385), wk =   0.0036413
        k(   81) = (   0.0000000   0.4615385  -0.3846154), wk =   0.0036413
        k(   82) = (   0.0000000   0.4615385  -0.3076923), wk =   0.0036413
        k(   83) = (   0.0000000   0.4615385  -0.2307692), wk =   0.0036413
        k(   84) = (   0.0000000   0.4615385  -0.1538462), wk =   0.0036413
        k(   85) = (   0.0000000   0.4615385  -0.0769231), wk =   0.0036413
        k(   86) = (   0.0769231  -0.0000000   0.0769231), wk =   0.0018207
        k(   87) = (   0.0769231  -0.0000000   0.1538462), wk =   0.0036413
        k(   88) = (   0.0769231  -0.0000000   0.2307692), wk =   0.0036413
        k(   89) = (   0.0769231  -0.0000000   0.3076923), wk =   0.0036413
        k(   90) = (   0.0769231  -0.0000000   0.3846154), wk =   0.0036413
        k(   91) = (   0.0769231  -0.0000000   0.4615385), wk =   0.0036413
        k(   92) = (   0.0769231   0.0000000  -0.4615385), wk =   0.0036413
        k(   93) = (   0.0769231  -0.0000000  -0.3846154), wk =   0.0036413
        k(   94) = (   0.0769231   0.0000000  -0.3076923), wk =   0.0036413
        k(   95) = (   0.0769231   0.0000000  -0.2307692), wk =   0.0036413
        k(   96) = (   0.0769231   0.0000000  -0.1538462), wk =   0.0036413
        k(   97) = (   0.0769231   0.0000000  -0.0769231), wk =   0.0036413
        k(   98) = (   0.0769231   0.0769231   0.0000000), wk =   0.0018207
        k(   99) = (   0.0769231   0.0769231   0.1538462), wk =   0.0018207
        k(  100) = (   0.0769231   0.0769231   0.2307692), wk =   0.0036413
        k(  101) = (   0.0769231   0.0769231   0.3076923), wk =   0.0036413
        k(  102) = (   0.0769231   0.0769231   0.3846154), wk =   0.0036413
        k(  103) = (   0.0769231   0.0769231   0.4615385), wk =   0.0036413
        k(  104) = (   0.0769231   0.0769231  -0.4615385), wk =   0.0036413
        k(  105) = (   0.0769231   0.0769231  -0.3846154), wk =   0.0036413
        k(  106) = (   0.0769231   0.0769231  -0.3076923), wk =   0.0036413
        k(  107) = (   0.0769231   0.0769231  -0.2307692), wk =   0.0036413
        k(  108) = (   0.0769231   0.0769231  -0.1538462), wk =   0.0036413
        k(  109) = (   0.0769231   0.0769231  -0.0769231), wk =   0.0036413
        k(  110) = (   0.0769231   0.1538462  -0.0000000), wk =   0.0036413
        k(  111) = (   0.0769231   0.1538462   0.2307692), wk =   0.0018207
        k(  112) = (   0.0769231   0.1538462   0.3076923), wk =   0.0036413
        k(  113) = (   0.0769231   0.1538462   0.3846154), wk =   0.0036413
        k(  114) = (   0.0769231   0.1538462   0.4615385), wk =   0.0036413
        k(  115) = (   0.0769231   0.1538462  -0.4615385), wk =   0.0036413
        k(  116) = (   0.0769231   0.1538462  -0.3846154), wk =   0.0036413
        k(  117) = (   0.0769231   0.1538462  -0.3076923), wk =   0.0036413
        k(  118) = (   0.0769231   0.1538462  -0.2307692), wk =   0.0036413
        k(  119) = (   0.0769231   0.1538462  -0.1538462), wk =   0.0036413
        k(  120) = (   0.0769231   0.1538462  -0.0769231), wk =   0.0036413
        k(  121) = (   0.0769231   0.2307692   0.0000000), wk =   0.0036413
        k(  122) = (   0.0769231   0.2307692   0.0769231), wk =   0.0036413
        k(  123) = (   0.0769231   0.2307692   0.1538462), wk =   0.0036413
        k(  124) = (   0.0769231   0.2307692   0.3076923), wk =   0.0018207
        k(  125) = (   0.0769231   0.2307692   0.3846154), wk =   0.0036413
        k(  126) = (   0.0769231   0.2307692   0.4615385), wk =   0.0036413
        k(  127) = (   0.0769231   0.2307692  -0.4615385), wk =   0.0036413
        k(  128) = (   0.0769231   0.2307692  -0.3846154), wk =   0.0036413
        k(  129) = (   0.0769231   0.2307692  -0.3076923), wk =   0.0036413
        k(  130) = (   0.0769231   0.2307692  -0.2307692), wk =   0.0036413
        k(  131) = (   0.0769231   0.2307692  -0.1538462), wk =   0.0036413
        k(  132) = (   0.0769231   0.2307692  -0.0769231), wk =   0.0036413
        k(  133) = (   0.0769231   0.3076923  -0.0000000), wk =   0.0036413
        k(  134) = (   0.0769231   0.3076923   0.0769231), wk =   0.0036413
        k(  135) = (   0.0769231   0.3076923   0.1538462), wk =   0.0036413
        k(  136) = (   0.0769231   0.3076923   0.2307692), wk =   0.0036413
        k(  137) = (   0.0769231   0.3076923   0.3846154), wk =   0.0018207
        k(  138) = (   0.0769231   0.3076923   0.4615385), wk =   0.0036413
        k(  139) = (   0.0769231   0.3076923  -0.4615385), wk =   0.0036413
        k(  140) = (   0.0769231   0.3076923  -0.3846154), wk =   0.0036413
        k(  141) = (   0.0769231   0.3076923  -0.3076923), wk =   0.0036413
        k(  142) = (   0.0769231   0.3076923  -0.2307692), wk =   0.0036413
        k(  143) = (   0.0769231   0.3076923  -0.1538462), wk =   0.0036413
        k(  144) = (   0.0769231   0.3076923  -0.0769231), wk =   0.0036413
        k(  145) = (   0.0769231   0.3846154  -0.0000000), wk =   0.0036413
        k(  146) = (   0.0769231   0.3846154   0.0769231), wk =   0.0036413
        k(  147) = (   0.0769231   0.3846154   0.1538462), wk =   0.0036413
        k(  148) = (   0.0769231   0.3846154   0.2307692), wk =   0.0036413
        k(  149) = (   0.0769231   0.3846154   0.3076923), wk =   0.0036413
        k(  150) = (   0.0769231   0.3846154   0.4615385), wk =   0.0018207
        k(  151) = (   0.0769231   0.3846154  -0.4615385), wk =   0.0036413
        k(  152) = (   0.0769231   0.3846154  -0.3846154), wk =   0.0036413
        k(  153) = (   0.0769231   0.3846154  -0.3076923), wk =   0.0036413
        k(  154) = (   0.0769231   0.3846154  -0.2307692), wk =   0.0036413
        k(  155) = (   0.0769231   0.3846154  -0.1538462), wk =   0.0036413
        k(  156) = (   0.0769231   0.3846154  -0.0769231), wk =   0.0036413
        k(  157) = (   0.0769231   0.4615385  -0.0000000), wk =   0.0036413
        k(  158) = (   0.0769231   0.4615385   0.0769231), wk =   0.0036413
        k(  159) = (   0.0769231   0.4615385   0.1538462), wk =   0.0036413
        k(  160) = (   0.0769231   0.4615385   0.2307692), wk =   0.0036413
        k(  161) = (   0.0769231   0.4615385   0.3076923), wk =   0.0036413
        k(  162) = (   0.0769231   0.4615385   0.3846154), wk =   0.0036413
        k(  163) = (   0.0769231   0.4615385  -0.4615385), wk =   0.0018207
        k(  164) = (   0.0769231   0.4615385  -0.3846154), wk =   0.0036413
        k(  165) = (   0.0769231   0.4615385  -0.3076923), wk =   0.0036413
        k(  166) = (   0.0769231   0.4615385  -0.2307692), wk =   0.0036413
        k(  167) = (   0.0769231   0.4615385  -0.1538462), wk =   0.0036413
        k(  168) = (   0.0769231   0.4615385  -0.0769231), wk =   0.0036413
        k(  169) = (   0.0769231  -0.4615385   0.0000000), wk =   0.0036413
        k(  170) = (   0.0769231  -0.4615385   0.0769231), wk =   0.0036413
        k(  171) = (   0.0769231  -0.4615385   0.1538462), wk =   0.0036413
        k(  172) = (   0.0769231  -0.4615385   0.2307692), wk =   0.0036413
        k(  173) = (   0.0769231  -0.4615385   0.3076923), wk =   0.0036413
        k(  174) = (   0.0769231  -0.4615385   0.3846154), wk =   0.0036413
        k(  175) = (   0.0769231  -0.4615385   0.4615385), wk =   0.0036413
        k(  176) = (   0.0769231  -0.4615385  -0.3846154), wk =   0.0018207
        k(  177) = (   0.0769231  -0.4615385  -0.3076923), wk =   0.0036413
        k(  178) = (   0.0769231  -0.4615385  -0.2307692), wk =   0.0036413
        k(  179) = (   0.0769231  -0.4615385  -0.1538462), wk =   0.0036413
        k(  180) = (   0.0769231  -0.4615385  -0.0769231), wk =   0.0036413
        k(  181) = (   0.0769231  -0.3846154   0.0000000), wk =   0.0036413
        k(  182) = (   0.0769231  -0.3846154   0.0769231), wk =   0.0036413
        k(  183) = (   0.0769231  -0.3846154   0.1538462), wk =   0.0036413
        k(  184) = (   0.0769231  -0.3846154   0.2307692), wk =   0.0036413
        k(  185) = (   0.0769231  -0.3846154   0.3076923), wk =   0.0036413
        k(  186) = (   0.0769231  -0.3846154   0.3846154), wk =   0.0036413
        k(  187) = (   0.0769231  -0.3846154   0.4615385), wk =   0.0036413
        k(  188) = (   0.0769231  -0.3846154  -0.3076923), wk =   0.0018207
        k(  189) = (   0.0769231  -0.3846154  -0.2307692), wk =   0.0036413
        k(  190) = (   0.0769231  -0.3846154  -0.1538462), wk =   0.0036413
        k(  191) = (   0.0769231  -0.3846154  -0.0769231), wk =   0.0036413
        k(  192) = (   0.0769231  -0.3076923   0.0000000), wk =   0.0036413
        k(  193) = (   0.0769231  -0.3076923   0.0769231), wk =   0.0036413
        k(  194) = (   0.0769231  -0.3076923   0.1538462), wk =   0.0036413
        k(  195) = (   0.0769231  -0.3076923   0.2307692), wk =   0.0036413
        k(  196) = (   0.0769231  -0.3076923   0.3076923), wk =   0.0036413
        k(  197) = (   0.0769231  -0.3076923   0.3846154), wk =   0.0036413
        k(  198) = (   0.0769231  -0.3076923   0.4615385), wk =   0.0036413
        k(  199) = (   0.0769231  -0.3076923  -0.4615385), wk =   0.0036413
        k(  200) = (   0.0769231  -0.3076923  -0.2307692), wk =   0.0018207
        k(  201) = (   0.0769231  -0.3076923  -0.1538462), wk =   0.0036413
        k(  202) = (   0.0769231  -0.3076923  -0.0769231), wk =   0.0036413
        k(  203) = (   0.0769231  -0.2307692   0.0000000), wk =   0.0036413
        k(  204) = (   0.0769231  -0.2307692   0.0769231), wk =   0.0036413
        k(  205) = (   0.0769231  -0.2307692   0.1538462), wk =   0.0036413
        k(  206) = (   0.0769231  -0.2307692   0.2307692), wk =   0.0036413
        k(  207) = (   0.0769231  -0.2307692   0.3076923), wk =   0.0036413
        k(  208) = (   0.0769231  -0.2307692   0.3846154), wk =   0.0036413
        k(  209) = (   0.0769231  -0.2307692   0.4615385), wk =   0.0036413
        k(  210) = (   0.0769231  -0.2307692  -0.4615385), wk =   0.0036413
        k(  211) = (   0.0769231  -0.2307692  -0.3846154), wk =   0.0036413
        k(  212) = (   0.0769231  -0.2307692  -0.1538462), wk =   0.0018207
        k(  213) = (   0.0769231  -0.2307692  -0.0769231), wk =   0.0036413
        k(  214) = (   0.0769231  -0.1538462   0.0000000), wk =   0.0036413
        k(  215) = (   0.0769231  -0.1538462   0.0769231), wk =   0.0036413
        k(  216) = (   0.0769231  -0.1538462   0.1538462), wk =   0.0036413
        k(  217) = (   0.0769231  -0.1538462   0.2307692), wk =   0.0036413
        k(  218) = (   0.0769231  -0.1538462   0.3076923), wk =   0.0036413
        k(  219) = (   0.0769231  -0.1538462   0.3846154), wk =   0.0036413
        k(  220) = (   0.0769231  -0.1538462   0.4615385), wk =   0.0036413
        k(  221) = (   0.0769231  -0.1538462  -0.4615385), wk =   0.0036413
        k(  222) = (   0.0769231  -0.1538462  -0.3846154), wk =   0.0036413
        k(  223) = (   0.0769231  -0.1538462  -0.3076923), wk =   0.0036413
        k(  224) = (   0.0769231  -0.1538462  -0.0769231), wk =   0.0018207
        k(  225) = (   0.0769231  -0.0769231   0.0000000), wk =   0.0018207
        k(  226) = (   0.0769231  -0.0769231   0.0769231), wk =   0.0036413
        k(  227) = (   0.0769231  -0.0769231   0.1538462), wk =   0.0036413
        k(  228) = (   0.0769231  -0.0769231   0.2307692), wk =   0.0036413
        k(  229) = (   0.0769231  -0.0769231   0.3076923), wk =   0.0036413
        k(  230) = (   0.0769231  -0.0769231   0.3846154), wk =   0.0036413
        k(  231) = (   0.0769231  -0.0769231   0.4615385), wk =   0.0036413
        k(  232) = (   0.0769231  -0.0769231  -0.4615385), wk =   0.0036413
        k(  233) = (   0.0769231  -0.0769231  -0.3846154), wk =   0.0036413
        k(  234) = (   0.0769231  -0.0769231  -0.3076923), wk =   0.0036413
        k(  235) = (   0.0769231  -0.0769231  -0.2307692), wk =   0.0036413
        k(  236) = (   0.1538462  -0.0000000   0.1538462), wk =   0.0018207
        k(  237) = (   0.1538462  -0.0000000   0.2307692), wk =   0.0036413
        k(  238) = (   0.1538462  -0.0000000   0.3076923), wk =   0.0036413
        k(  239) = (   0.1538462  -0.0000000   0.3846154), wk =   0.0036413
        k(  240) = (   0.1538462  -0.0000000   0.4615385), wk =   0.0036413
        k(  241) = (   0.1538462   0.0000000  -0.4615385), wk =   0.0036413
        k(  242) = (   0.1538462   0.0000000  -0.3846154), wk =   0.0036413
        k(  243) = (   0.1538462   0.0000000  -0.3076923), wk =   0.0036413
        k(  244) = (   0.1538462  -0.0000000  -0.2307692), wk =   0.0036413
        k(  245) = (   0.1538462   0.0000000  -0.1538462), wk =   0.0036413
        k(  246) = (   0.1538462   0.0769231   0.2307692), wk =   0.0018207
        k(  247) = (   0.1538462   0.0769231   0.3076923), wk =   0.0036413
        k(  248) = (   0.1538462   0.0769231   0.3846154), wk =   0.0036413
        k(  249) = (   0.1538462   0.0769231   0.4615385), wk =   0.0036413
        k(  250) = (   0.1538462   0.0769231  -0.4615385), wk =   0.0036413
        k(  251) = (   0.1538462   0.0769231  -0.3846154), wk =   0.0036413
        k(  252) = (   0.1538462   0.0769231  -0.3076923), wk =   0.0036413
        k(  253) = (   0.1538462   0.0769231  -0.2307692), wk =   0.0036413
        k(  254) = (   0.1538462   0.0769231  -0.1538462), wk =   0.0036413
        k(  255) = (   0.1538462   0.0769231  -0.0769231), wk =   0.0036413
        k(  256) = (   0.1538462   0.1538462   0.0000000), wk =   0.0018207
        k(  257) = (   0.1538462   0.1538462   0.3076923), wk =   0.0018207
        k(  258) = (   0.1538462   0.1538462   0.3846154), wk =   0.0036413
        k(  259) = (   0.1538462   0.1538462   0.4615385), wk =   0.0036413
        k(  260) = (   0.1538462   0.1538462  -0.4615385), wk =   0.0036413
        k(  261) = (   0.1538462   0.1538462  -0.3846154), wk =   0.0036413
        k(  262) = (   0.1538462   0.1538462  -0.3076923), wk =   0.0036413
        k(  263) = (   0.1538462   0.1538462  -0.2307692), wk =   0.0036413
        k(  264) = (   0.1538462   0.1538462  -0.1538462), wk =   0.0036413
        k(  265) = (   0.1538462   0.1538462  -0.0769231), wk =   0.0036413
        k(  266) = (   0.1538462   0.2307692   0.0000000), wk =   0.0036413
        k(  267) = (   0.1538462   0.2307692   0.3846154), wk =   0.0018207
        k(  268) = (   0.1538462   0.2307692   0.4615385), wk =   0.0036413
        k(  269) = (   0.1538462   0.2307692  -0.4615385), wk =   0.0036413
        k(  270) = (   0.1538462   0.2307692  -0.3846154), wk =   0.0036413
        k(  271) = (   0.1538462   0.2307692  -0.3076923), wk =   0.0036413
        k(  272) = (   0.1538462   0.2307692  -0.2307692), wk =   0.0036413
        k(  273) = (   0.1538462   0.2307692  -0.1538462), wk =   0.0036413
        k(  274) = (   0.1538462   0.2307692  -0.0769231), wk =   0.0036413
        k(  275) = (   0.1538462   0.3076923  -0.0000000), wk =   0.0036413
        k(  276) = (   0.1538462   0.3076923   0.0769231), wk =   0.0036413
        k(  277) = (   0.1538462   0.3076923   0.4615385), wk =   0.0018207
        k(  278) = (   0.1538462   0.3076923  -0.4615385), wk =   0.0036413
        k(  279) = (   0.1538462   0.3076923  -0.3846154), wk =   0.0036413
        k(  280) = (   0.1538462   0.3076923  -0.3076923), wk =   0.0036413
        k(  281) = (   0.1538462   0.3076923  -0.2307692), wk =   0.0036413
        k(  282) = (   0.1538462   0.3076923  -0.1538462), wk =   0.0036413
        k(  283) = (   0.1538462   0.3076923  -0.0769231), wk =   0.0036413
        k(  284) = (   0.1538462   0.3846154  -0.0000000), wk =   0.0036413
        k(  285) = (   0.1538462   0.3846154   0.0769231), wk =   0.0036413
        k(  286) = (   0.1538462   0.3846154   0.1538462), wk =   0.0036413
        k(  287) = (   0.1538462   0.3846154   0.2307692), wk =   0.0036413
        k(  288) = (   0.1538462   0.3846154  -0.4615385), wk =   0.0018207
        k(  289) = (   0.1538462   0.3846154  -0.3846154), wk =   0.0036413
        k(  290) = (   0.1538462   0.3846154  -0.3076923), wk =   0.0036413
        k(  291) = (   0.1538462   0.3846154  -0.2307692), wk =   0.0036413
        k(  292) = (   0.1538462   0.3846154  -0.1538462), wk =   0.0036413
        k(  293) = (   0.1538462   0.3846154  -0.0769231), wk =   0.0036413
        k(  294) = (   0.1538462   0.4615385   0.0000000), wk =   0.0036413
        k(  295) = (   0.1538462   0.4615385   0.0769231), wk =   0.0036413
        k(  296) = (   0.1538462   0.4615385   0.1538462), wk =   0.0036413
        k(  297) = (   0.1538462   0.4615385   0.2307692), wk =   0.0036413
        k(  298) = (   0.1538462   0.4615385   0.3076923), wk =   0.0036413
        k(  299) = (   0.1538462   0.4615385  -0.3846154), wk =   0.0018207
        k(  300) = (   0.1538462   0.4615385  -0.3076923), wk =   0.0036413
        k(  301) = (   0.1538462   0.4615385  -0.2307692), wk =   0.0036413
        k(  302) = (   0.1538462   0.4615385  -0.1538462), wk =   0.0036413
        k(  303) = (   0.1538462   0.4615385  -0.0769231), wk =   0.0036413
        k(  304) = (   0.1538462  -0.4615385   0.0000000), wk =   0.0036413
        k(  305) = (   0.1538462  -0.4615385   0.0769231), wk =   0.0036413
        k(  306) = (   0.1538462  -0.4615385   0.1538462), wk =   0.0036413
        k(  307) = (   0.1538462  -0.4615385   0.2307692), wk =   0.0036413
        k(  308) = (   0.1538462  -0.4615385   0.3076923), wk =   0.0036413
        k(  309) = (   0.1538462  -0.4615385   0.3846154), wk =   0.0036413
        k(  310) = (   0.1538462  -0.4615385  -0.3076923), wk =   0.0018207
        k(  311) = (   0.1538462  -0.4615385  -0.2307692), wk =   0.0036413
        k(  312) = (   0.1538462  -0.4615385  -0.1538462), wk =   0.0036413
        k(  313) = (   0.1538462  -0.4615385  -0.0769231), wk =   0.0036413
        k(  314) = (   0.1538462  -0.3846154   0.0000000), wk =   0.0036413
        k(  315) = (   0.1538462  -0.3846154   0.0769231), wk =   0.0036413
        k(  316) = (   0.1538462  -0.3846154   0.1538462), wk =   0.0036413
        k(  317) = (   0.1538462  -0.3846154   0.2307692), wk =   0.0036413
        k(  318) = (   0.1538462  -0.3846154   0.3076923), wk =   0.0036413
        k(  319) = (   0.1538462  -0.3846154   0.3846154), wk =   0.0036413
        k(  320) = (   0.1538462  -0.3846154   0.4615385), wk =   0.0036413
        k(  321) = (   0.1538462  -0.3846154  -0.2307692), wk =   0.0018207
        k(  322) = (   0.1538462  -0.3846154  -0.1538462), wk =   0.0036413
        k(  323) = (   0.1538462  -0.3846154  -0.0769231), wk =   0.0036413
        k(  324) = (   0.1538462  -0.3076923   0.0000000), wk =   0.0036413
        k(  325) = (   0.1538462  -0.3076923   0.0769231), wk =   0.0036413
        k(  326) = (   0.1538462  -0.3076923   0.1538462), wk =   0.0036413
        k(  327) = (   0.1538462  -0.3076923   0.2307692), wk =   0.0036413
        k(  328) = (   0.1538462  -0.3076923   0.3076923), wk =   0.0036413
        k(  329) = (   0.1538462  -0.3076923   0.3846154), wk =   0.0036413
        k(  330) = (   0.1538462  -0.3076923   0.4615385), wk =   0.0036413
        k(  331) = (   0.1538462  -0.3076923  -0.1538462), wk =   0.0018207
        k(  332) = (   0.1538462  -0.3076923  -0.0769231), wk =   0.0036413
        k(  333) = (   0.1538462  -0.2307692   0.0000000), wk =   0.0036413
        k(  334) = (   0.1538462  -0.2307692   0.0769231), wk =   0.0036413
        k(  335) = (   0.1538462  -0.2307692   0.1538462), wk =   0.0036413
        k(  336) = (   0.1538462  -0.2307692   0.2307692), wk =   0.0036413
        k(  337) = (   0.1538462  -0.2307692   0.3076923), wk =   0.0036413
        k(  338) = (   0.1538462  -0.2307692   0.3846154), wk =   0.0036413
        k(  339) = (   0.1538462  -0.2307692   0.4615385), wk =   0.0036413
        k(  340) = (   0.1538462  -0.2307692  -0.4615385), wk =   0.0036413
        k(  341) = (   0.1538462  -0.2307692  -0.0769231), wk =   0.0018207
        k(  342) = (   0.1538462  -0.1538462   0.0000000), wk =   0.0018207
        k(  343) = (   0.1538462  -0.1538462   0.0769231), wk =   0.0036413
        k(  344) = (   0.1538462  -0.1538462   0.1538462), wk =   0.0036413
        k(  345) = (   0.1538462  -0.1538462   0.2307692), wk =   0.0036413
        k(  346) = (   0.1538462  -0.1538462   0.3076923), wk =   0.0036413
        k(  347) = (   0.1538462  -0.1538462   0.3846154), wk =   0.0036413
        k(  348) = (   0.1538462  -0.1538462   0.4615385), wk =   0.0036413
        k(  349) = (   0.1538462  -0.1538462  -0.4615385), wk =   0.0036413
        k(  350) = (   0.1538462  -0.1538462  -0.3846154), wk =   0.0036413
        k(  351) = (   0.1538462  -0.0769231   0.0769231), wk =   0.0018207
        k(  352) = (   0.1538462  -0.0769231   0.1538462), wk =   0.0036413
        k(  353) = (   0.1538462  -0.0769231   0.2307692), wk =   0.0036413
        k(  354) = (   0.1538462  -0.0769231   0.3076923), wk =   0.0036413
        k(  355) = (   0.1538462  -0.0769231   0.3846154), wk =   0.0036413
        k(  356) = (   0.1538462  -0.0769231   0.4615385), wk =   0.0036413
        k(  357) = (   0.1538462  -0.0769231  -0.4615385), wk =   0.0036413
        k(  358) = (   0.1538462  -0.0769231  -0.3846154), wk =   0.0036413
        k(  359) = (   0.1538462  -0.0769231  -0.3076923), wk =   0.0036413
        k(  360) = (   0.2307692  -0.0000000   0.2307692), wk =   0.0018207
        k(  361) = (   0.2307692  -0.0000000   0.3076923), wk =   0.0036413
        k(  362) = (   0.2307692  -0.0000000   0.3846154), wk =   0.0036413
        k(  363) = (   0.2307692  -0.0000000   0.4615385), wk =   0.0036413
        k(  364) = (   0.2307692   0.0000000  -0.4615385), wk =   0.0036413
        k(  365) = (   0.2307692   0.0000000  -0.3846154), wk =   0.0036413
        k(  366) = (   0.2307692   0.0000000  -0.3076923), wk =   0.0036413
        k(  367) = (   0.2307692   0.0000000  -0.2307692), wk =   0.0036413
        k(  368) = (   0.2307692   0.0769231   0.3076923), wk =   0.0018207
        k(  369) = (   0.2307692   0.0769231   0.3846154), wk =   0.0036413
        k(  370) = (   0.2307692   0.0769231   0.4615385), wk =   0.0036413
        k(  371) = (   0.2307692   0.0769231  -0.4615385), wk =   0.0036413
        k(  372) = (   0.2307692   0.0769231  -0.3846154), wk =   0.0036413
        k(  373) = (   0.2307692   0.0769231  -0.3076923), wk =   0.0036413
        k(  374) = (   0.2307692   0.0769231  -0.2307692), wk =   0.0036413
        k(  375) = (   0.2307692   0.0769231  -0.1538462), wk =   0.0036413
        k(  376) = (   0.2307692   0.1538462   0.3846154), wk =   0.0018207
        k(  377) = (   0.2307692   0.1538462   0.4615385), wk =   0.0036413
        k(  378) = (   0.2307692   0.1538462  -0.4615385), wk =   0.0036413
        k(  379) = (   0.2307692   0.1538462  -0.3846154), wk =   0.0036413
        k(  380) = (   0.2307692   0.1538462  -0.3076923), wk =   0.0036413
        k(  381) = (   0.2307692   0.1538462  -0.2307692), wk =   0.0036413
        k(  382) = (   0.2307692   0.1538462  -0.1538462), wk =   0.0036413
        k(  383) = (   0.2307692   0.1538462  -0.0769231), wk =   0.0036413
        k(  384) = (   0.2307692   0.2307692   0.0000000), wk =   0.0018207
        k(  385) = (   0.2307692   0.2307692   0.4615385), wk =   0.0018207
        k(  386) = (   0.2307692   0.2307692  -0.4615385), wk =   0.0036413
        k(  387) = (   0.2307692   0.2307692  -0.3846154), wk =   0.0036413
        k(  388) = (   0.2307692   0.2307692  -0.3076923), wk =   0.0036413
        k(  389) = (   0.2307692   0.2307692  -0.2307692), wk =   0.0036413
        k(  390) = (   0.2307692   0.2307692  -0.1538462), wk =   0.0036413
        k(  391) = (   0.2307692   0.2307692  -0.0769231), wk =   0.0036413
        k(  392) = (   0.2307692   0.3076923  -0.0000000), wk =   0.0036413
        k(  393) = (   0.2307692   0.3076923  -0.4615385), wk =   0.0018207
        k(  394) = (   0.2307692   0.3076923  -0.3846154), wk =   0.0036413
        k(  395) = (   0.2307692   0.3076923  -0.3076923), wk =   0.0036413
        k(  396) = (   0.2307692   0.3076923  -0.2307692), wk =   0.0036413
        k(  397) = (   0.2307692   0.3076923  -0.1538462), wk =   0.0036413
        k(  398) = (   0.2307692   0.3076923  -0.0769231), wk =   0.0036413
        k(  399) = (   0.2307692   0.3846154  -0.0000000), wk =   0.0036413
        k(  400) = (   0.2307692   0.3846154   0.0769231), wk =   0.0036413
        k(  401) = (   0.2307692   0.3846154  -0.3846154), wk =   0.0018207
        k(  402) = (   0.2307692   0.3846154  -0.3076923), wk =   0.0036413
        k(  403) = (   0.2307692   0.3846154  -0.2307692), wk =   0.0036413
        k(  404) = (   0.2307692   0.3846154  -0.1538462), wk =   0.0036413
        k(  405) = (   0.2307692   0.3846154  -0.0769231), wk =   0.0036413
        k(  406) = (   0.2307692   0.4615385  -0.0000000), wk =   0.0036413
        k(  407) = (   0.2307692   0.4615385   0.0769231), wk =   0.0036413
        k(  408) = (   0.2307692   0.4615385   0.1538462), wk =   0.0036413
        k(  409) = (   0.2307692   0.4615385  -0.3076923), wk =   0.0018207
        k(  410) = (   0.2307692   0.4615385  -0.2307692), wk =   0.0036413
        k(  411) = (   0.2307692   0.4615385  -0.1538462), wk =   0.0036413
        k(  412) = (   0.2307692   0.4615385  -0.0769231), wk =   0.0036413
        k(  413) = (   0.2307692  -0.4615385   0.0000000), wk =   0.0036413
        k(  414) = (   0.2307692  -0.4615385   0.0769231), wk =   0.0036413
        k(  415) = (   0.2307692  -0.4615385   0.1538462), wk =   0.0036413
        k(  416) = (   0.2307692  -0.4615385   0.2307692), wk =   0.0036413
        k(  417) = (   0.2307692  -0.4615385   0.3076923), wk =   0.0036413
        k(  418) = (   0.2307692  -0.4615385  -0.2307692), wk =   0.0018207
        k(  419) = (   0.2307692  -0.4615385  -0.1538462), wk =   0.0036413
        k(  420) = (   0.2307692  -0.4615385  -0.0769231), wk =   0.0036413
        k(  421) = (   0.2307692  -0.3846154   0.0000000), wk =   0.0036413
        k(  422) = (   0.2307692  -0.3846154   0.0769231), wk =   0.0036413
        k(  423) = (   0.2307692  -0.3846154   0.1538462), wk =   0.0036413
        k(  424) = (   0.2307692  -0.3846154   0.2307692), wk =   0.0036413
        k(  425) = (   0.2307692  -0.3846154   0.3076923), wk =   0.0036413
        k(  426) = (   0.2307692  -0.3846154   0.3846154), wk =   0.0036413
        k(  427) = (   0.2307692  -0.3846154  -0.1538462), wk =   0.0018207
        k(  428) = (   0.2307692  -0.3846154  -0.0769231), wk =   0.0036413
        k(  429) = (   0.2307692  -0.3076923   0.0000000), wk =   0.0036413
        k(  430) = (   0.2307692  -0.3076923   0.0769231), wk =   0.0036413
        k(  431) = (   0.2307692  -0.3076923   0.1538462), wk =   0.0036413
        k(  432) = (   0.2307692  -0.3076923   0.2307692), wk =   0.0036413
        k(  433) = (   0.2307692  -0.3076923   0.3076923), wk =   0.0036413
        k(  434) = (   0.2307692  -0.3076923   0.3846154), wk =   0.0036413
        k(  435) = (   0.2307692  -0.3076923   0.4615385), wk =   0.0036413
        k(  436) = (   0.2307692  -0.3076923  -0.0769231), wk =   0.0018207
        k(  437) = (   0.2307692  -0.2307692   0.0000000), wk =   0.0018207
        k(  438) = (   0.2307692  -0.2307692   0.0769231), wk =   0.0036413
        k(  439) = (   0.2307692  -0.2307692   0.1538462), wk =   0.0036413
        k(  440) = (   0.2307692  -0.2307692   0.2307692), wk =   0.0036413
        k(  441) = (   0.2307692  -0.2307692   0.3076923), wk =   0.0036413
        k(  442) = (   0.2307692  -0.2307692   0.3846154), wk =   0.0036413
        k(  443) = (   0.2307692  -0.2307692   0.4615385), wk =   0.0036413
        k(  444) = (   0.2307692  -0.1538462   0.0769231), wk =   0.0018207
        k(  445) = (   0.2307692  -0.1538462   0.1538462), wk =   0.0036413
        k(  446) = (   0.2307692  -0.1538462   0.2307692), wk =   0.0036413
        k(  447) = (   0.2307692  -0.1538462   0.3076923), wk =   0.0036413
        k(  448) = (   0.2307692  -0.1538462   0.3846154), wk =   0.0036413
        k(  449) = (   0.2307692  -0.1538462   0.4615385), wk =   0.0036413
        k(  450) = (   0.2307692  -0.1538462  -0.4615385), wk =   0.0036413
        k(  451) = (   0.2307692  -0.0769231   0.1538462), wk =   0.0018207
        k(  452) = (   0.2307692  -0.0769231   0.2307692), wk =   0.0036413
        k(  453) = (   0.2307692  -0.0769231   0.3076923), wk =   0.0036413
        k(  454) = (   0.2307692  -0.0769231   0.3846154), wk =   0.0036413
        k(  455) = (   0.2307692  -0.0769231   0.4615385), wk =   0.0036413
        k(  456) = (   0.2307692  -0.0769231  -0.4615385), wk =   0.0036413
        k(  457) = (   0.2307692  -0.0769231  -0.3846154), wk =   0.0036413
        k(  458) = (   0.3076923  -0.0000000   0.3076923), wk =   0.0018207
        k(  459) = (   0.3076923  -0.0000000   0.3846154), wk =   0.0036413
        k(  460) = (   0.3076923  -0.0000000   0.4615385), wk =   0.0036413
        k(  461) = (   0.3076923   0.0000000  -0.4615385), wk =   0.0036413
        k(  462) = (   0.3076923   0.0000000  -0.3846154), wk =   0.0036413
        k(  463) = (   0.3076923   0.0000000  -0.3076923), wk =   0.0036413
        k(  464) = (   0.3076923   0.0769231   0.3846154), wk =   0.0018207
        k(  465) = (   0.3076923   0.0769231   0.4615385), wk =   0.0036413
        k(  466) = (   0.3076923   0.0769231  -0.4615385), wk =   0.0036413
        k(  467) = (   0.3076923   0.0769231  -0.3846154), wk =   0.0036413
        k(  468) = (   0.3076923   0.0769231  -0.3076923), wk =   0.0036413
        k(  469) = (   0.3076923   0.0769231  -0.2307692), wk =   0.0036413
        k(  470) = (   0.3076923   0.1538462   0.4615385), wk =   0.0018207
        k(  471) = (   0.3076923   0.1538462  -0.4615385), wk =   0.0036413
        k(  472) = (   0.3076923   0.1538462  -0.3846154), wk =   0.0036413
        k(  473) = (   0.3076923   0.1538462  -0.3076923), wk =   0.0036413
        k(  474) = (   0.3076923   0.1538462  -0.2307692), wk =   0.0036413
        k(  475) = (   0.3076923   0.1538462  -0.1538462), wk =   0.0036413
        k(  476) = (   0.3076923   0.2307692  -0.4615385), wk =   0.0018207
        k(  477) = (   0.3076923   0.2307692  -0.3846154), wk =   0.0036413
        k(  478) = (   0.3076923   0.2307692  -0.3076923), wk =   0.0036413
        k(  479) = (   0.3076923   0.2307692  -0.2307692), wk =   0.0036413
        k(  480) = (   0.3076923   0.2307692  -0.1538462), wk =   0.0036413
        k(  481) = (   0.3076923   0.2307692  -0.0769231), wk =   0.0036413
        k(  482) = (   0.3076923   0.3076923   0.0000000), wk =   0.0018207
        k(  483) = (   0.3076923   0.3076923  -0.3846154), wk =   0.0018207
        k(  484) = (   0.3076923   0.3076923  -0.3076923), wk =   0.0036413
        k(  485) = (   0.3076923   0.3076923  -0.2307692), wk =   0.0036413
        k(  486) = (   0.3076923   0.3076923  -0.1538462), wk =   0.0036413
        k(  487) = (   0.3076923   0.3076923  -0.0769231), wk =   0.0036413
        k(  488) = (   0.3076923   0.3846154  -0.0000000), wk =   0.0036413
        k(  489) = (   0.3076923   0.3846154  -0.3076923), wk =   0.0018207
        k(  490) = (   0.3076923   0.3846154  -0.2307692), wk =   0.0036413
        k(  491) = (   0.3076923   0.3846154  -0.1538462), wk =   0.0036413
        k(  492) = (   0.3076923   0.3846154  -0.0769231), wk =   0.0036413
        k(  493) = (   0.3076923   0.4615385   0.0000000), wk =   0.0036413
        k(  494) = (   0.3076923   0.4615385   0.0769231), wk =   0.0036413
        k(  495) = (   0.3076923   0.4615385  -0.2307692), wk =   0.0018207
        k(  496) = (   0.3076923   0.4615385  -0.1538462), wk =   0.0036413
        k(  497) = (   0.3076923   0.4615385  -0.0769231), wk =   0.0036413
        k(  498) = (   0.3076923  -0.4615385   0.0000000), wk =   0.0036413
        k(  499) = (   0.3076923  -0.4615385   0.0769231), wk =   0.0036413
        k(  500) = (   0.3076923  -0.4615385   0.1538462), wk =   0.0036413
        k(  501) = (   0.3076923  -0.4615385  -0.1538462), wk =   0.0018207
        k(  502) = (   0.3076923  -0.4615385  -0.0769231), wk =   0.0036413
        k(  503) = (   0.3076923  -0.3846154   0.0000000), wk =   0.0036413
        k(  504) = (   0.3076923  -0.3846154   0.0769231), wk =   0.0036413
        k(  505) = (   0.3076923  -0.3846154   0.1538462), wk =   0.0036413
        k(  506) = (   0.3076923  -0.3846154   0.2307692), wk =   0.0036413
        k(  507) = (   0.3076923  -0.3846154  -0.0769231), wk =   0.0018207
        k(  508) = (   0.3076923  -0.3076923   0.0000000), wk =   0.0018207
        k(  509) = (   0.3076923  -0.3076923   0.0769231), wk =   0.0036413
        k(  510) = (   0.3076923  -0.3076923   0.1538462), wk =   0.0036413
        k(  511) = (   0.3076923  -0.3076923   0.2307692), wk =   0.0036413
        k(  512) = (   0.3076923  -0.3076923   0.3076923), wk =   0.0036413
        k(  513) = (   0.3076923  -0.3076923   0.3846154), wk =   0.0036413
        k(  514) = (   0.3076923  -0.2307692   0.0769231), wk =   0.0018207
        k(  515) = (   0.3076923  -0.2307692   0.1538462), wk =   0.0036413
        k(  516) = (   0.3076923  -0.2307692   0.2307692), wk =   0.0036413
        k(  517) = (   0.3076923  -0.2307692   0.3076923), wk =   0.0036413
        k(  518) = (   0.3076923  -0.2307692   0.3846154), wk =   0.0036413
        k(  519) = (   0.3076923  -0.2307692   0.4615385), wk =   0.0036413
        k(  520) = (   0.3076923  -0.1538462   0.1538462), wk =   0.0018207
        k(  521) = (   0.3076923  -0.1538462   0.2307692), wk =   0.0036413
        k(  522) = (   0.3076923  -0.1538462   0.3076923), wk =   0.0036413
        k(  523) = (   0.3076923  -0.1538462   0.3846154), wk =   0.0036413
        k(  524) = (   0.3076923  -0.1538462   0.4615385), wk =   0.0036413
        k(  525) = (   0.3076923  -0.0769231   0.2307692), wk =   0.0018207
        k(  526) = (   0.3076923  -0.0769231   0.3076923), wk =   0.0036413
        k(  527) = (   0.3076923  -0.0769231   0.3846154), wk =   0.0036413
        k(  528) = (   0.3076923  -0.0769231   0.4615385), wk =   0.0036413
        k(  529) = (   0.3076923  -0.0769231  -0.4615385), wk =   0.0036413
        k(  530) = (   0.3846154  -0.0000000   0.3846154), wk =   0.0018207
        k(  531) = (   0.3846154  -0.0000000   0.4615385), wk =   0.0036413
        k(  532) = (   0.3846154   0.0000000  -0.4615385), wk =   0.0036413
        k(  533) = (   0.3846154   0.0000000  -0.3846154), wk =   0.0036413
        k(  534) = (   0.3846154   0.0769231   0.4615385), wk =   0.0018207
        k(  535) = (   0.3846154   0.0769231  -0.4615385), wk =   0.0036413
        k(  536) = (   0.3846154   0.0769231  -0.3846154), wk =   0.0036413
        k(  537) = (   0.3846154   0.0769231  -0.3076923), wk =   0.0036413
        k(  538) = (   0.3846154   0.1538462  -0.4615385), wk =   0.0018207
        k(  539) = (   0.3846154   0.1538462  -0.3846154), wk =   0.0036413
        k(  540) = (   0.3846154   0.1538462  -0.3076923), wk =   0.0036413
        k(  541) = (   0.3846154   0.1538462  -0.2307692), wk =   0.0036413
        k(  542) = (   0.3846154   0.2307692  -0.3846154), wk =   0.0018207
        k(  543) = (   0.3846154   0.2307692  -0.3076923), wk =   0.0036413
        k(  544) = (   0.3846154   0.2307692  -0.2307692), wk =   0.0036413
        k(  545) = (   0.3846154   0.2307692  -0.1538462), wk =   0.0036413
        k(  546) = (   0.3846154   0.3076923  -0.3076923), wk =   0.0018207
        k(  547) = (   0.3846154   0.3076923  -0.2307692), wk =   0.0036413
        k(  548) = (   0.3846154   0.3076923  -0.1538462), wk =   0.0036413
        k(  549) = (   0.3846154   0.3076923  -0.0769231), wk =   0.0036413
        k(  550) = (   0.3846154   0.3846154   0.0000000), wk =   0.0018207
        k(  551) = (   0.3846154   0.3846154  -0.2307692), wk =   0.0018207
        k(  552) = (   0.3846154   0.3846154  -0.1538462), wk =   0.0036413
        k(  553) = (   0.3846154   0.3846154  -0.0769231), wk =   0.0036413
        k(  554) = (   0.3846154   0.4615385  -0.0000000), wk =   0.0036413
        k(  555) = (   0.3846154   0.4615385  -0.1538462), wk =   0.0018207
        k(  556) = (   0.3846154   0.4615385  -0.0769231), wk =   0.0036413
        k(  557) = (   0.3846154  -0.4615385   0.0000000), wk =   0.0036413
        k(  558) = (   0.3846154  -0.4615385   0.0769231), wk =   0.0036413
        k(  559) = (   0.3846154  -0.4615385  -0.0769231), wk =   0.0018207
        k(  560) = (   0.3846154  -0.3846154   0.0000000), wk =   0.0018207
        k(  561) = (   0.3846154  -0.3846154   0.0769231), wk =   0.0036413
        k(  562) = (   0.3846154  -0.3846154   0.1538462), wk =   0.0036413
        k(  563) = (   0.3846154  -0.3076923   0.0769231), wk =   0.0018207
        k(  564) = (   0.3846154  -0.3076923   0.1538462), wk =   0.0036413
        k(  565) = (   0.3846154  -0.3076923   0.2307692), wk =   0.0036413
        k(  566) = (   0.3846154  -0.2307692   0.1538462), wk =   0.0018207
        k(  567) = (   0.3846154  -0.2307692   0.2307692), wk =   0.0036413
        k(  568) = (   0.3846154  -0.2307692   0.3076923), wk =   0.0036413
        k(  569) = (   0.3846154  -0.1538462   0.2307692), wk =   0.0018207
        k(  570) = (   0.3846154  -0.1538462   0.3076923), wk =   0.0036413
        k(  571) = (   0.3846154  -0.1538462   0.3846154), wk =   0.0036413
        k(  572) = (   0.3846154  -0.1538462   0.4615385), wk =   0.0036413
        k(  573) = (   0.3846154  -0.0769231   0.3076923), wk =   0.0018207
        k(  574) = (   0.3846154  -0.0769231   0.3846154), wk =   0.0036413
        k(  575) = (   0.3846154  -0.0769231   0.4615385), wk =   0.0036413
        k(  576) = (   0.4615385  -0.0000000   0.4615385), wk =   0.0018207
        k(  577) = (   0.4615385   0.0000000  -0.4615385), wk =   0.0036413
        k(  578) = (   0.4615385   0.0769231  -0.4615385), wk =   0.0018207
        k(  579) = (   0.4615385   0.0769231  -0.3846154), wk =   0.0036413
        k(  580) = (   0.4615385   0.1538462  -0.3846154), wk =   0.0018207
        k(  581) = (   0.4615385   0.1538462  -0.3076923), wk =   0.0036413
        k(  582) = (   0.4615385   0.2307692  -0.3076923), wk =   0.0018207
        k(  583) = (   0.4615385   0.2307692  -0.2307692), wk =   0.0036413
        k(  584) = (   0.4615385   0.3076923  -0.2307692), wk =   0.0018207
        k(  585) = (   0.4615385   0.3076923  -0.1538462), wk =   0.0036413
        k(  586) = (   0.4615385   0.3846154  -0.1538462), wk =   0.0018207
        k(  587) = (   0.4615385   0.3846154  -0.0769231), wk =   0.0036413
        k(  588) = (   0.4615385   0.4615385   0.0000000), wk =   0.0018207
        k(  589) = (   0.4615385   0.4615385  -0.0769231), wk =   0.0018207
        k(  590) = (   0.4615385  -0.4615385   0.0000000), wk =   0.0018207
        k(  591) = (   0.4615385  -0.3846154   0.0769231), wk =   0.0018207
        k(  592) = (   0.4615385  -0.3076923   0.1538462), wk =   0.0018207
        k(  593) = (   0.4615385  -0.2307692   0.2307692), wk =   0.0018207
        k(  594) = (   0.4615385  -0.1538462   0.3076923), wk =   0.0018207
        k(  595) = (   0.4615385  -0.0769231   0.3846154), wk =   0.0018207

     Dense  grid:    37157 G-vectors     FFT dimensions: (  48,  48,  48)

     Smooth grid:    13131 G-vectors     FFT dimensions: (  36,  36,  36)

     Dynamical RAM for                 wfc:       0.45 MB

     Dynamical RAM for     wfc (w. buffer):     269.44 MB

     Dynamical RAM for           str. fact:       0.57 MB

     Dynamical RAM for           local pot:       0.00 MB

     Dynamical RAM for          nlocal pot:       0.90 MB

     Dynamical RAM for                qrad:       1.52 MB

     Dynamical RAM for          rho,v,vnew:       4.23 MB

     Dynamical RAM for               rhoin:       1.41 MB

     Dynamical RAM for            rho*nmix:       9.07 MB

     Dynamical RAM for           G-vectors:       2.23 MB

     Dynamical RAM for          h,s,v(r/c):       0.06 MB

     Dynamical RAM for          <psi|beta>:       0.01 MB

     Dynamical RAM for                 psi:       0.90 MB

     Dynamical RAM for                hpsi:       0.90 MB

     Dynamical RAM for                spsi:       0.90 MB

     Dynamical RAM for      wfcinit/wfcrot:       0.91 MB

     Dynamical RAM for           addusdens:     106.59 MB

     Dynamical RAM for          addusforce:     108.02 MB

     Dynamical RAM for         addusstress:     113.96 MB

     Estimated static dynamical RAM per process >     285.66 MB

     Estimated max dynamical RAM per process >     408.69 MB

     Initial potential from superposition of free atoms

     starting charge      27.9984, renormalised to      28.0000
     Starting wfcs are   18 randomized atomic wfcs

     total cpu time spent up to now is       31.3 secs

     Self-consistent Calculation

     iteration #  1     ecut=    45.00 Ry     beta= 0.40
     Davidson diagonalization with overlap

---- Real-time Memory Report at c_bands before calling an iterative solver
           323 MiB given to the printing process from OS
             0 MiB allocation reported by mallinfo(arena+hblkhd)
           292 MiB available memory on the node where the printing process lives
------------------
     ethr =  1.00E-02,  avg # of iterations =  3.3

     Threshold (ethr) on eigenvalues was too large:
     Diagonalizing with lowered threshold

     Davidson diagonalization with overlap

---- Real-time Memory Report at c_bands before calling an iterative solver
           430 MiB given to the printing process from OS
             0 MiB allocation reported by mallinfo(arena+hblkhd)
           419 MiB available memory on the node where the printing process lives
------------------
     ethr =  1.03E-04,  avg # of iterations =  2.8

     total cpu time spent up to now is      212.7 secs

     total energy              =    -426.37932290 Ry
     estimated scf accuracy    <       0.03018829 Ry

     iteration #  2     ecut=    45.00 Ry     beta= 0.40
     Davidson diagonalization with overlap

---- Real-time Memory Report at c_bands before calling an iterative solver
           436 MiB given to the printing process from OS
             0 MiB allocation reported by mallinfo(arena+hblkhd)
           316 MiB available memory on the node where the printing process lives
------------------
     ethr =  1.08E-04,  avg # of iterations =  1.0

     total cpu time spent up to now is      290.0 secs

     total energy              =    -426.37742623 Ry
     estimated scf accuracy    <       0.00880500 Ry

     iteration #  3     ecut=    45.00 Ry     beta= 0.40
     Davidson diagonalization with overlap

---- Real-time Memory Report at c_bands before calling an iterative solver
           437 MiB given to the printing process from OS
             0 MiB allocation reported by mallinfo(arena+hblkhd)
           315 MiB available memory on the node where the printing process lives
------------------
     ethr =  3.14E-05,  avg # of iterations =  1.8

     total cpu time spent up to now is      371.1 secs

     total energy              =    -426.37782932 Ry
     estimated scf accuracy    <       0.00010151 Ry

     iteration #  4     ecut=    45.00 Ry     beta= 0.40
     Davidson diagonalization with overlap

---- Real-time Memory Report at c_bands before calling an iterative solver
           437 MiB given to the printing process from OS
             0 MiB allocation reported by mallinfo(arena+hblkhd)
           368 MiB available memory on the node where the printing process lives
------------------
     ethr =  3.63E-07,  avg # of iterations =  3.0

     total cpu time spent up to now is      475.2 secs

     total energy              =    -426.37785054 Ry
     estimated scf accuracy    <       0.00000525 Ry

     iteration #  5     ecut=    45.00 Ry     beta= 0.40
     Davidson diagonalization with overlap

---- Real-time Memory Report at c_bands before calling an iterative solver
           438 MiB given to the printing process from OS
             0 MiB allocation reported by mallinfo(arena+hblkhd)
           365 MiB available memory on the node where the printing process lives
------------------
     ethr =  1.87E-08,  avg # of iterations =  2.0

     total cpu time spent up to now is      569.9 secs

     total energy              =    -426.37785164 Ry
     estimated scf accuracy    <       0.00000058 Ry

     iteration #  6     ecut=    45.00 Ry     beta= 0.40
     Davidson diagonalization with overlap

---- Real-time Memory Report at c_bands before calling an iterative solver
           438 MiB given to the printing process from OS
             0 MiB allocation reported by mallinfo(arena+hblkhd)
           383 MiB available memory on the node where the printing process lives
------------------
     ethr =  2.09E-09,  avg # of iterations =  2.0

     total cpu time spent up to now is      651.5 secs

     total energy              =    -426.37785171 Ry
     estimated scf accuracy    <       0.00000004 Ry

     iteration #  7     ecut=    45.00 Ry     beta= 0.40
     Davidson diagonalization with overlap

---- Real-time Memory Report at c_bands before calling an iterative solver
           439 MiB given to the printing process from OS
             0 MiB allocation reported by mallinfo(arena+hblkhd)
           335 MiB available memory on the node where the printing process lives
------------------
     ethr =  1.60E-10,  avg # of iterations =  2.1

     total cpu time spent up to now is      746.0 secs

     total energy              =    -426.37785173 Ry
     estimated scf accuracy    <          3.9E-09 Ry

     iteration #  8     ecut=    45.00 Ry     beta= 0.40
     Davidson diagonalization with overlap

---- Real-time Memory Report at c_bands before calling an iterative solver
           439 MiB given to the printing process from OS
             0 MiB allocation reported by mallinfo(arena+hblkhd)
           359 MiB available memory on the node where the printing process lives
------------------
     ethr =  1.39E-11,  avg # of iterations =  2.0

     total cpu time spent up to now is      829.4 secs

     total energy              =    -426.37785173 Ry
     estimated scf accuracy    <          1.7E-09 Ry

     iteration #  9     ecut=    45.00 Ry     beta= 0.40
     Davidson diagonalization with overlap

---- Real-time Memory Report at c_bands before calling an iterative solver
           439 MiB given to the printing process from OS
             0 MiB allocation reported by mallinfo(arena+hblkhd)
           382 MiB available memory on the node where the printing process lives
------------------
     ethr =  6.07E-12,  avg # of iterations =  2.0

     total cpu time spent up to now is      927.4 secs

     total energy              =    -426.37785173 Ry
     estimated scf accuracy    <          4.5E-10 Ry

     iteration # 10     ecut=    45.00 Ry     beta= 0.40
     Davidson diagonalization with overlap

---- Real-time Memory Report at c_bands before calling an iterative solver
           440 MiB given to the printing process from OS
             0 MiB allocation reported by mallinfo(arena+hblkhd)
           332 MiB available memory on the node where the printing process lives
------------------
     ethr =  1.59E-12,  avg # of iterations =  2.0

     total cpu time spent up to now is     1018.3 secs

     End of self-consistent calculation

          k = 0.0000 0.0000 0.0000 (  1643 PWs)   bands (ev):

   -17.1390 -17.1145 -17.0894 -17.0829 -17.0812 -16.9194 -16.8971 -16.8883
   -16.8871 -16.8751  -4.7684   7.0610   7.6040   7.6045   7.6595   9.7739
    10.1982  10.5003

     occupation numbers 
     1.0000   1.0000   1.0000   1.0000   1.0000   1.0000   1.0000   1.0000
     1.0000   1.0000   1.0000   1.0545   0.3105   0.3094   0.2011   0.0000
     0.0000   0.0000

          k = 0.0571 0.0544-0.0544 (  1656 PWs)   bands (ev):

   -17.1392 -17.1161 -17.0970 -17.0783 -17.0727 -16.9218 -16.9020 -16.8879
   -16.8864 -16.8719  -4.6961   6.0672   7.4504   7.4692   8.1659   9.9808
    10.5009  10.6210

     occupation numbers 
     1.0000   1.0000   1.0000   1.0000   1.0000   1.0000   1.0000   1.0000
     1.0000   1.0000   1.0000   1.0000   0.7133   0.6624   0.0001   0.0000
     0.0000   0.0000

          k = 0.1142 0.1088-0.1088 (  1662 PWs)   bands (ev):

   -17.1400 -17.1178 -17.1056 -17.0679 -17.0617 -16.9267 -16.9116 -16.8908
   -16.8826 -16.8663  -4.4813   4.6961   7.1235   7.1308   8.2451  10.4284
    10.8770  11.4680

     occupation numbers 
     1.0000   1.0000   1.0000   1.0000   1.0000   1.0000   1.0000   1.0000
     1.0000   1.0000   1.0000   1.0000   1.0746   1.0764   0.0000   0.0000
     0.0000   0.0000

          k = 0.1713 0.1632-0.1632 (  1651 PWs)   bands (ev):

   -17.1412 -17.1169 -17.1119 -17.0562 -17.0528 -16.9311 -16.9217 -16.8951
   -16.8791 -16.8615  -4.1315   3.3238   6.7748   6.7922   8.0006  10.8421
    11.2586  12.6326

     occupation numbers 
     1.0000   1.0000   1.0000   1.0000   1.0000   1.0000   1.0000   1.0000
     1.0000   1.0000   1.0000   1.0000   1.0022   1.0029   0.0025   0.0000
     0.0000   0.0000

          k = 0.2284 0.2176-0.2176 (  1653 PWs)   bands (ev):

   -17.1421 -17.1158 -17.1145 -17.0474 -17.0459 -16.9331 -16.9304 -16.8998
   -16.8768 -16.8583  -3.6659   2.0502   6.4833   6.5183   7.7252  11.0487
    11.4493  13.8972

     occupation numbers 
     1.0000   1.0000   1.0000   1.0000   1.0000   1.0000   1.0000   1.0000
     1.0000   1.0000   1.0000   1.0000   1.0000   1.0000   0.1090   0.0000
     0.0000   0.0000

          k = 0.2856 0.2720-0.2720 (  1651 PWs)   bands (ev):

   -17.1423 -17.1176 -17.1119 -17.0452 -17.0387 -16.9364 -16.9329 -16.9037
   -16.8758 -16.8566  -3.1377   0.9673   6.2806   6.3295   7.5188  11.0718
    11.4642  14.5747

     occupation numbers 
     1.0000   1.0000   1.0000   1.0000   1.0000   1.0000   1.0000   1.0000
     1.0000   1.0000   1.0000   1.0000   1.0000   1.0000   0.5254   0.0000
     0.0000   0.0000

          k = 0.3427 0.3264-0.3264 (  1639 PWs)   bands (ev):

   -17.1421 -17.1182 -17.1103 -17.0448 -17.0352 -16.9394 -16.9320 -16.9058
   -16.8755 -16.8559  -2.7087   0.2568   6.1774   6.2340   7.4113  11.0420
    11.4331  14.4739

     occupation numbers 
     1.0000   1.0000   1.0000   1.0000   1.0000   1.0000   1.0000   1.0000
     1.0000   1.0000   1.0000   1.0000   1.0000   1.0000   0.8138   0.0000
     0.0000   0.0000

          k = 0.0517-0.0544 0.0544 (  1645 PWs)   bands (ev):

   -17.1407 -17.1164 -17.0907 -17.0786 -17.0783 -16.9197 -16.9012 -16.8937
   -16.8835 -16.8704  -4.7031   5.9536   7.4810   7.5412   8.2840  10.1481
    10.2950  10.6581

     occupation numbers 
     1.0000   1.0000   1.0000   1.0000   1.0000   1.0000   1.0000   1.0000
     1.0000   1.0000   1.0000   1.0000   0.6299   0.4650   0.0000   0.0000
     0.0000   0.0000

          k = 0.1088 0.0000 0.0000 (  1648 PWs)   bands (ev):

   -17.1401 -17.1164 -17.0967 -17.0795 -17.0699 -16.9250 -16.8942 -16.8923
   -16.8894 -16.8696  -4.6765   5.9223   7.2244   7.2533   8.7165   9.7691
    10.6961  10.7103

     occupation numbers 
     1.0000   1.0000   1.0000   1.0000   1.0000   1.0000   1.0000   1.0000
     1.0000   1.0000   1.0000   1.0000   1.0763   1.0622   0.0000   0.0000
     0.0000   0.0000

          k = 0.1659 0.0544-0.0544 (  1648 PWs)   bands (ev):

   -17.1391 -17.1192 -17.1054 -17.0717 -17.0579 -16.9333 -16.9033 -16.8896
   -16.8836 -16.8680  -4.5065   4.9294   6.8530   7.0074   8.9038   9.7408
    11.0826  11.5241

     occupation numbers 
     1.0000   1.0000   1.0000   1.0000   1.0000   1.0000   1.0000   1.0000
     1.0000   1.0000   1.0000   1.0000   1.0069   1.0367   0.0000   0.0000
     0.0000   0.0000

          k = 0.2230 0.1088-0.1088 (  1653 PWs)   bands (ev):

   -17.1384 -17.1219 -17.1111 -17.0610 -17.0470 -16.9410 -16.9142 -16.8905
   -16.8779 -16.8653  -4.1984   3.6569   6.4978   6.6531   8.7376  10.1298
    11.5448  12.3692

     occupation numbers 
     1.0000   1.0000   1.0000   1.0000   1.0000   1.0000   1.0000   1.0000
     1.0000   1.0000   1.0000   1.0000   1.0000   1.0003   0.0000   0.0000
     0.0000   0.0000

          k = 0.2801 0.1632-0.1632 (  1654 PWs)   bands (ev):

   -17.1390 -17.1243 -17.1111 -17.0508 -17.0394 -16.9455 -16.9238 -16.8955
   -16.8735 -16.8618  -3.7663   2.3945   6.2096   6.2801   8.4753  10.5832
    11.7964  13.0688

     occupation numbers 
     1.0000   1.0000   1.0000   1.0000   1.0000   1.0000   1.0000   1.0000
     1.0000   1.0000   1.0000   1.0000   1.0000   1.0000   0.0000   0.0000
     0.0000   0.0000

          k = 0.3372 0.2176-0.2176 (  1650 PWs)   bands (ev):

   -17.1407 -17.1263 -17.1069 -17.0433 -17.0357 -16.9458 -16.9313 -16.9023
   -16.8709 -16.8583  -3.2479   1.2646   5.8991   6.0908   8.2559  10.8220
    11.7906  13.8727

     occupation numbers 
     1.0000   1.0000   1.0000   1.0000   1.0000   1.0000   1.0000   1.0000
     1.0000   1.0000   1.0000   1.0000   1.0000   1.0000   0.0000   0.0000
     0.0000   0.0000

          k = 0.3943 0.2720-0.2720 (  1648 PWs)   bands (ev):

   -17.1428 -17.1270 -17.1020 -17.0408 -17.0335 -16.9434 -16.9358 -16.9089
   -16.8699 -16.8553  -2.7564   0.4167   5.6501   6.0429   8.1206  10.9201
    11.6715  14.5401

     occupation numbers 
     1.0000   1.0000   1.0000   1.0000   1.0000   1.0000   1.0000   1.0000
     1.0000   1.0000   1.0000   1.0000   1.0000   1.0000   0.0003   0.0000
     0.0000   0.0000

          k =-0.2910-0.3807 0.3807 (  1646 PWs)   bands (ev):

   -17.1450 -17.1266 -17.0989 -17.0425 -17.0317 -16.9430 -16.9344 -16.9134
   -16.8702 -16.8531  -2.5890   0.1635   5.5055   6.1083   8.0828  11.0159
    11.5582  14.7152

     occupation numbers 
     1.0000   1.0000   1.0000   1.0000   1.0000   1.0000   1.0000   1.0000
     1.0000   1.0000   1.0000   1.0000   1.0000   1.0000   0.0006   0.0000
     0.0000   0.0000

          k =-0.2339-0.3264 0.3264 (  1648 PWs)   bands (ev):

   -17.1467 -17.1252 -17.0988 -17.0455 -17.0326 -16.9433 -16.9306 -16.9132
   -16.8719 -16.8521  -2.9212   0.6833   5.4781   6.2782   8.1452  11.1423
    11.4900  14.7102

     occupation numbers 
     1.0000   1.0000   1.0000   1.0000   1.0000   1.0000   1.0000   1.0000
     1.0000   1.0000   1.0000   1.0000   1.0000   1.0000   0.0002   0.0000
     0.0000   0.0000

          k =-0.1768-0.2720 0.2720 (  1653 PWs)   bands (ev):

   -17.1472 -17.1229 -17.1015 -17.0495 -17.0376 -16.9405 -16.9285 -16.9072
   -16.8749 -16.8529  -3.4452   1.6588   5.5784   6.5393   8.3014  11.1936
    11.4674  14.0132

     occupation numbers 
     1.0000   1.0000   1.0000   1.0000   1.0000   1.0000   1.0000   1.0000
     1.0000   1.0000   1.0000   1.0000   1.0000   1.0000   0.0000   0.0000
     0.0000   0.0000

          k =-0.1197-0.2176 0.2176 (  1648 PWs)   bands (ev):

   -17.1462 -17.1201 -17.1045 -17.0554 -17.0463 -16.9346 -16.9254 -16.8984
   -16.8793 -16.8557  -3.9388   2.8400   5.8203   6.8693   8.5239  10.9959
    11.3867  12.9416

     occupation numbers 
     1.0000   1.0000   1.0000   1.0000   1.0000   1.0000   1.0000   1.0000
     1.0000   1.0000   1.0000   1.0000   1.0000   1.0085   0.0000   0.0000
     0.0000   0.0000

          k =-0.0626-0.1632 0.1632 (  1656 PWs)   bands (ev):

   -17.1440 -17.1189 -17.1033 -17.0640 -17.0573 -16.9276 -16.9192 -16.8899
   -16.8847 -16.8605  -4.3275   4.0853   6.2313   7.2216   8.7207  10.6143
    10.9808  12.0238

     occupation numbers 
     1.0000   1.0000   1.0000   1.0000   1.0000   1.0000   1.0000   1.0000
     1.0000   1.0000   1.0000   1.0000   1.0000   1.0772   0.0000   0.0000
     0.0000   0.0000

          k =-0.0054-0.1088 0.1088 (  1648 PWs)   bands (ev):

   -17.1418 -17.1184 -17.0967 -17.0736 -17.0688 -16.9215 -16.9104 -16.8912
   -16.8829 -16.8667  -4.5856   5.2102   6.8653   7.4890   8.6388  10.3357
    10.4423  11.2177

     occupation numbers 
     1.0000   1.0000   1.0000   1.0000   1.0000   1.0000   1.0000   1.0000
     1.0000   1.0000   1.0000   1.0000   1.0080   0.6076   0.0000   0.0000
     0.0000   0.0000

          k = 0.1033-0.1088 0.1088 (  1634 PWs)   bands (ev):

   -17.1446 -17.1206 -17.0909 -17.0712 -17.0712 -16.9203 -16.9079 -16.9027
   -16.8783 -16.8633  -4.5099   4.5560   7.2106   7.2677   8.4367  10.5711
    11.0173  11.2175

     occupation numbers 
     1.0000   1.0000   1.0000   1.0000   1.0000   1.0000   1.0000   1.0000
     1.0000   1.0000   1.0000   1.0000   1.0802   1.0519   0.0000   0.0000
     0.0000   0.0000

          k = 0.1605-0.0544 0.0544 (  1647 PWs)   bands (ev):

   -17.1438 -17.1196 -17.0953 -17.0751 -17.0635 -16.9297 -16.8990 -16.8969
   -16.8853 -16.8631  -4.5275   4.8626   6.8634   6.9789   9.1972  10.0290
    11.0438  11.3016

     occupation numbers 
     1.0000   1.0000   1.0000   1.0000   1.0000   1.0000   1.0000   1.0000
     1.0000   1.0000   1.0000   1.0000   1.0078   1.0285   0.0000   0.0000
     0.0000   0.0000

          k = 0.2176 0.0000 0.0000 (  1639 PWs)   bands (ev):

   -17.1418 -17.1216 -17.1041 -17.0704 -17.0504 -16.9429 -16.8999 -16.8879
   -16.8864 -16.8644  -4.4020   4.5546   6.5252   6.5373   9.2735   9.8270
    11.6409  11.7680

     occupation numbers 
     1.0000   1.0000   1.0000   1.0000   1.0000   1.0000   1.0000   1.0000
     1.0000   1.0000   1.0000   1.0000   1.0000   1.0000   0.0000   0.0000
     0.0000   0.0000

          k = 0.2747 0.0544-0.0544 (  1646 PWs)   bands (ev):

   -17.1387 -17.1255 -17.1109 -17.0609 -17.0372 -16.9551 -16.9103 -16.8837
   -16.8787 -16.8664  -4.1367   3.6588   6.1558   6.2205   9.1930   9.8320
    12.1127  12.3897

     occupation numbers 
     1.0000   1.0000   1.0000   1.0000   1.0000   1.0000   1.0000   1.0000
     1.0000   1.0000   1.0000   1.0000   1.0000   1.0000   0.0000   0.0000
     0.0000   0.0000

          k = 0.3318 0.1088-0.1088 (  1655 PWs)   bands (ev):

   -17.1380 -17.1298 -17.1109 -17.0503 -17.0271 -16.9635 -16.9210 -16.8888
   -16.8715 -16.8634  -3.7418   2.5659   5.7270   5.9124   9.2667  10.0358
    12.3167  12.5803

     occupation numbers 
     1.0000   1.0000   1.0000   1.0000   1.0000   1.0000   1.0000   1.0000
     1.0000   1.0000   1.0000   1.0000   1.0000   1.0000   0.0000   0.0000
     0.0000   0.0000

          k = 0.3889 0.1632-0.1632 (  1654 PWs)   bands (ev):

   -17.1417 -17.1326 -17.1039 -17.0407 -17.0227 -16.9656 -16.9309 -16.8993
   -16.8666 -16.8573  -3.2436   1.4888   5.2619   5.7577   9.0862  10.5807
    12.5121  12.6208

     occupation numbers 
     1.0000   1.0000   1.0000   1.0000   1.0000   1.0000   1.0000   1.0000
     1.0000   1.0000   1.0000   1.0000   1.0000   1.0000   0.0000   0.0000
     0.0000   0.0000

          k = 0.4460 0.2176-0.2176 (  1657 PWs)   bands (ev):

   -17.1466 -17.1339 -17.0946 -17.0334 -17.0238 -16.9611 -16.9396 -16.9108
   -16.8637 -16.8516  -2.7195   0.5837   4.8828   5.7303   8.9296  10.8926
    12.3808  13.3784

     occupation numbers 
     1.0000   1.0000   1.0000   1.0000   1.0000   1.0000   1.0000   1.0000
     1.0000   1.0000   1.0000   1.0000   1.0000   1.0000   0.0000   0.0000
     0.0000   0.0000

          k =-0.2393-0.4351 0.4351 (  1648 PWs)   bands (ev):

   -17.1506 -17.1342 -17.0869 -17.0330 -17.0241 -16.9531 -16.9457 -16.9203
   -16.8625 -16.8476  -2.4069   0.1232   4.6262   5.8261   8.8645  11.0479
    12.1740  14.4757

     occupation numbers 
     1.0000   1.0000   1.0000   1.0000   1.0000   1.0000   1.0000   1.0000
     1.0000   1.0000   1.0000   1.0000   1.0000   1.0000   0.0000   0.0000
     0.0000   0.0000

          k =-0.1822-0.3807 0.3807 (  1646 PWs)   bands (ev):

   -17.1529 -17.1334 -17.0836 -17.0397 -17.0228 -16.9524 -16.9383 -16.9264
   -16.8633 -16.8458  -2.6120   0.4223   4.5141   6.0358   8.8978  11.2206
    11.9766  14.8666

     occupation numbers 
     1.0000   1.0000   1.0000   1.0000   1.0000   1.0000   1.0000   1.0000
     1.0000   1.0000   1.0000   1.0000   1.0000   1.0000   0.0000   0.0000
     0.0000   0.0000

          k =-0.1251-0.3264 0.3264 (  1658 PWs)   bands (ev):

   -17.1535 -17.1310 -17.0858 -17.0469 -17.0266 -16.9508 -16.9296 -16.9236
   -16.8665 -16.8464  -3.1155   1.2457   4.5737   6.3413   9.0128  11.4290
    11.7532  13.8418

     occupation numbers 
     1.0000   1.0000   1.0000   1.0000   1.0000   1.0000   1.0000   1.0000
     1.0000   1.0000   1.0000   1.0000   1.0000   1.0000   0.0000   0.0000
     0.0000   0.0000

          k =-0.0680-0.2720 0.2720 (  1646 PWs)   bands (ev):

   -17.1521 -17.1271 -17.0919 -17.0534 -17.0359 -16.9439 -16.9286 -16.9092
   -16.8721 -16.8493  -3.6292   2.2488   4.8563   6.7088   9.1560  11.3936
    11.5235  12.8785

     occupation numbers 
     1.0000   1.0000   1.0000   1.0000   1.0000   1.0000   1.0000   1.0000
     1.0000   1.0000   1.0000   1.0000   1.0000   1.0007   0.0000   0.0000
     0.0000   0.0000

          k =-0.0109-0.2176 0.2176 (  1639 PWs)   bands (ev):

   -17.1491 -17.1234 -17.0967 -17.0603 -17.0483 -16.9338 -16.9247 -16.8979
   -16.8782 -16.8542  -4.0517   3.2105   5.4546   7.0706   9.1668  11.0156
    11.0914  12.4959

     occupation numbers 
     1.0000   1.0000   1.0000   1.0000   1.0000   1.0000   1.0000   1.0000
     1.0000   1.0000   1.0000   1.0000   1.0000   1.0578   0.0000   0.0000
     0.0000   0.0000

          k = 0.0462-0.1632 0.1632 (  1643 PWs)   bands (ev):

   -17.1461 -17.1220 -17.0950 -17.0677 -17.0609 -16.9239 -16.9176 -16.8981
   -16.8781 -16.8601  -4.3496   3.9810   6.4020   7.2937   8.7943  10.6166
    10.9206  12.0609

     occupation numbers 
     1.0000   1.0000   1.0000   1.0000   1.0000   1.0000   1.0000   1.0000
     1.0000   1.0000   1.0000   1.0000   1.0000   1.0271   0.0000   0.0000
     0.0000   0.0000

          k = 0.1550-0.1632 0.1632 (  1631 PWs)   bands (ev):

   -17.1486 -17.1247 -17.0898 -17.0644 -17.0627 -16.9209 -16.9140 -16.9113
   -16.8743 -16.8572  -4.1980   3.2150   6.9252   6.9628   8.2565  10.9135
    11.3639  12.5082

     occupation numbers 
     1.0000   1.0000   1.0000   1.0000   1.0000   1.0000   1.0000   1.0000
     1.0000   1.0000   1.0000   1.0000   1.0165   1.0244   0.0000   0.0000
     0.0000   0.0000

          k = 0.2121-0.1088 0.1088 (  1634 PWs)   bands (ev):

   -17.1485 -17.1240 -17.0922 -17.0683 -17.0561 -16.9344 -16.9057 -16.9040
   -16.8789 -16.8565  -4.2557   3.5986   6.5334   6.6689   9.0958  10.5842
    11.4583  12.1936

     occupation numbers 
     1.0000   1.0000   1.0000   1.0000   1.0000   1.0000   1.0000   1.0000
     1.0000   1.0000   1.0000   1.0000   1.0000   1.0004   0.0000   0.0000
     0.0000   0.0000

          k = 0.2692-0.0544 0.0544 (  1646 PWs)   bands (ev):

   -17.1469 -17.1252 -17.1001 -17.0650 -17.0420 -16.9520 -16.9047 -16.8936
   -16.8805 -16.8579  -4.1719   3.6719   6.0681   6.2364   9.3120  10.2608
    12.1628  12.2786

     occupation numbers 
     1.0000   1.0000   1.0000   1.0000   1.0000   1.0000   1.0000   1.0000
     1.0000   1.0000   1.0000   1.0000   1.0000   1.0000   0.0000   0.0000
     0.0000   0.0000

          k = 0.3264 0.0000 0.0000 (  1649 PWs)   bands (ev):

   -17.1427 -17.1285 -17.1084 -17.0564 -17.0264 -16.9688 -16.9124 -16.8837
   -16.8759 -16.8627  -3.9484   3.2055   5.8577   5.8581   8.7403  10.2131
    12.8504  12.9152

     occupation numbers 
     1.0000   1.0000   1.0000   1.0000   1.0000   1.0000   1.0000   1.0000
     1.0000   1.0000   1.0000   1.0000   1.0000   1.0000   0.0000   0.0000
     0.0000   0.0000

          k = 0.3835 0.0544-0.0544 (  1646 PWs)   bands (ev):

   -17.1388 -17.1332 -17.1112 -17.0456 -17.0129 -16.9819 -16.9232 -16.8831
   -16.8688 -16.8644  -3.5922   2.3920   5.5004   5.5786   8.7462  10.0038
    12.8544  13.3784

     occupation numbers 
     1.0000   1.0000   1.0000   1.0000   1.0000   1.0000   1.0000   1.0000
     1.0000   1.0000   1.0000   1.0000   1.0000   1.0000   0.0000   0.0000
     0.0000   0.0000

          k = 0.4406 0.1088-0.1088 (  1654 PWs)   bands (ev):

   -17.1422 -17.1363 -17.1039 -17.0348 -17.0070 -16.9864 -16.9344 -16.8951
   -16.8634 -16.8568  -3.1213   1.4798   4.9460   5.4145   8.9721  10.2454
    12.5963  13.5295

     occupation numbers 
     1.0000   1.0000   1.0000   1.0000   1.0000   1.0000   1.0000   1.0000
     1.0000   1.0000   1.0000   1.0000   1.0000   1.0000   0.0000   0.0000
     0.0000   0.0000

          k = 0.4977 0.1632-0.1632 (  1652 PWs)   bands (ev):

   -17.1495 -17.1377 -17.0914 -17.0251 -17.0099 -16.9812 -16.9453 -16.9101
   -16.8597 -16.8484  -2.5873   0.6242   4.4143   5.3808   8.9781  11.0847
    12.5104  13.3948

     occupation numbers 
     1.0000   1.0000   1.0000   1.0000   1.0000   1.0000   1.0000   1.0000
     1.0000   1.0000   1.0000   1.0000   1.0000   1.0000   0.0000   0.0000
     0.0000   0.0000

          k =-0.1877-0.4895 0.4895 (  1650 PWs)   bands (ev):

   -17.1554 -17.1387 -17.0800 -17.0192 -17.0129 -16.9733 -16.9551 -16.9226
   -16.8574 -16.8424  -2.1647   0.0467   4.0181   5.4767   8.9897  11.7059
    13.0477  13.1940

     occupation numbers 
     1.0000   1.0000   1.0000   1.0000   1.0000   1.0000   1.0000   1.0000
     1.0000   1.0000   1.0000   1.0000   1.0000   1.0000   0.0000   0.0000
     0.0000   0.0000

          k =-0.1305-0.4351 0.4351 (  1647 PWs)   bands (ev):

   -17.1588 -17.1387 -17.0732 -17.0259 -17.0112 -16.9635 -16.9597 -16.9297
   -16.8571 -16.8394  -2.2298   0.1361   3.8097   5.6943   9.0929  11.8635
    12.8552  14.3336

     occupation numbers 
     1.0000   1.0000   1.0000   1.0000   1.0000   1.0000   1.0000   1.0000
     1.0000   1.0000   1.0000   1.0000   1.0000   1.0000   0.0000   0.0000
     0.0000   0.0000

          k =-0.0734-0.3807 0.3807 (  1651 PWs)   bands (ev):

   -17.1595 -17.1371 -17.0727 -17.0379 -17.0156 -16.9603 -16.9453 -16.9314
   -16.8592 -16.8398  -2.7005   0.7811   3.8437   6.0148   9.2684  11.9893
    12.5070  13.7400

     occupation numbers 
     1.0000   1.0000   1.0000   1.0000   1.0000   1.0000   1.0000   1.0000
     1.0000   1.0000   1.0000   1.0000   1.0000   1.0000   0.0000   0.0000
     0.0000   0.0000

          k =-0.0163-0.3264 0.3264 (  1643 PWs)   bands (ev):

   -17.1576 -17.1335 -17.0789 -17.0484 -17.0268 -16.9513 -16.9337 -16.9237
   -16.8641 -16.8432  -3.2241   1.5444   4.2086   6.4009   9.4165  11.9137
    12.1237  12.7298

     occupation numbers 
     1.0000   1.0000   1.0000   1.0000   1.0000   1.0000   1.0000   1.0000
     1.0000   1.0000   1.0000   1.0000   1.0000   1.0000   0.0000   0.0000
     0.0000   0.0000

          k = 0.0408-0.2720 0.2720 (  1643 PWs)   bands (ev):

   -17.1540 -17.1288 -17.0879 -17.0555 -17.0405 -16.9394 -16.9291 -16.9096
   -16.8706 -16.8486  -3.6710   2.2034   4.9784   6.7772   9.2811  11.4014
    11.5447  12.7520

     occupation numbers 
     1.0000   1.0000   1.0000   1.0000   1.0000   1.0000   1.0000   1.0000
     1.0000   1.0000   1.0000   1.0000   1.0000   1.0023   0.0000   0.0000
     0.0000   0.0000

          k = 0.0979-0.2176 0.2176 (  1636 PWs)   bands (ev):

   -17.1504 -17.1257 -17.0918 -17.0612 -17.0536 -16.9272 -16.9229 -16.9055
   -16.8738 -16.8544  -4.0009   2.7400   6.0605   7.0042   8.6893  10.9421
    11.4278  12.8699

     occupation numbers 
     1.0000   1.0000   1.0000   1.0000   1.0000   1.0000   1.0000   1.0000
     1.0000   1.0000   1.0000   1.0000   1.0000   1.0357   0.0000   0.0000
     0.0000   0.0000

          k = 0.2067-0.2176 0.2176 (  1630 PWs)   bands (ev):

   -17.1518 -17.1275 -17.0884 -17.0597 -17.0550 -16.9215 -16.9184 -16.9180
   -16.8718 -16.8528  -3.7908   2.0092   6.6873   6.7003   8.0339  11.1267
    11.5529  13.8186

     occupation numbers 
     1.0000   1.0000   1.0000   1.0000   1.0000   1.0000   1.0000   1.0000
     1.0000   1.0000   1.0000   1.0000   1.0005   1.0006   0.0014   0.0000
     0.0000   0.0000

          k = 0.2638-0.1632 0.1632 (  1629 PWs)   bands (ev):

   -17.1526 -17.1277 -17.0882 -17.0618 -17.0495 -16.9375 -16.9120 -16.9108
   -16.8741 -16.8511  -3.8779   2.3846   6.2257   6.4208   8.8680  10.9903
    11.7160  13.1541

     occupation numbers 
     1.0000   1.0000   1.0000   1.0000   1.0000   1.0000   1.0000   1.0000
     1.0000   1.0000   1.0000   1.0000   1.0000   1.0000   0.0000   0.0000
     0.0000   0.0000

          k = 0.3209-0.1088 0.1088 (  1642 PWs)   bands (ev):

   -17.1524 -17.1291 -17.0934 -17.0581 -17.0348 -16.9586 -16.9120 -16.9017
   -16.8742 -16.8508  -3.8283   2.6170   5.6084   6.0099   9.3963  10.6686
    12.4451  12.5578

     occupation numbers 
     1.0000   1.0000   1.0000   1.0000   1.0000   1.0000   1.0000   1.0000
     1.0000   1.0000   1.0000   1.0000   1.0000   1.0000   0.0000   0.0000
     0.0000   0.0000

          k = 0.3780-0.0544 0.0544 (  1649 PWs)   bands (ev):

   -17.1490 -17.1319 -17.1010 -17.0494 -17.0168 -16.9796 -16.9188 -16.8922
   -16.8704 -16.8544  -3.6418   2.4588   5.3651   5.6212   8.8395  10.2630
    13.1897  13.4222

     occupation numbers 
     1.0000   1.0000   1.0000   1.0000   1.0000   1.0000   1.0000   1.0000
     1.0000   1.0000   1.0000   1.0000   1.0000   1.0000   0.0000   0.0000
     0.0000   0.0000

          k = 0.4351 0.0000 0.0000 (  1650 PWs)   bands (ev):

   -17.1434 -17.1354 -17.1066 -17.0383 -16.9996 -16.9978 -16.9292 -16.8867
   -16.8650 -16.8594  -3.3223   1.8949   5.3154   5.3214   8.3598   9.7283
    14.0847  14.1353

     occupation numbers 
     1.0000   1.0000   1.0000   1.0000   1.0000   1.0000   1.0000   1.0000
     1.0000   1.0000   1.0000   1.0000   1.0000   1.0000   0.0000   0.0000
     0.0000   0.0000

          k = 0.4923 0.0544-0.0544 (  1648 PWs)   bands (ev):

   -17.1415 -17.1397 -17.1030 -17.0266 -17.0113 -16.9856 -16.9408 -16.8938
   -16.8595 -16.8572  -2.8820   1.1579   4.9659   5.1324   8.4719   9.4952
    13.8949  14.5736

     occupation numbers 
     1.0000   1.0000   1.0000   1.0000   1.0000   1.0000   1.0000   1.0000
     1.0000   1.0000   1.0000   1.0000   1.0000   1.0000   0.0000   0.0000
     0.0000   0.0000

          k = 0.5494 0.1088-0.1088 (  1652 PWs)   bands (ev):

   -17.1490 -17.1404 -17.0900 -17.0200 -17.0136 -16.9771 -16.9527 -16.9096
   -16.8564 -16.8483  -2.3539   0.4106   4.3739   5.0769   8.6832   9.9953
    13.6045  14.5693

     occupation numbers 
     1.0000   1.0000   1.0000   1.0000   1.0000   1.0000   1.0000   1.0000
     1.0000   1.0000   1.0000   1.0000   1.0000   1.0000   0.0000   0.0000
     0.0000   0.0000

          k =-0.1360-0.5439 0.5439 (  1650 PWs)   bands (ev):

   -17.1567 -17.1413 -17.0761 -17.0181 -17.0039 -16.9768 -16.9640 -16.9245
   -16.8543 -16.8404  -1.8584  -0.1879   3.8323   5.1545   8.7561  11.1566
    13.3823  14.3245

     occupation numbers 
     1.0000   1.0000   1.0000   1.0000   1.0000   1.0000   1.0000   1.0000
     1.0000   1.0000   1.0000   1.0000   1.0000   1.0000   0.0000   0.0000
     0.0000   0.0000

          k =-0.0789-0.4895 0.4895 (  1647 PWs)   bands (ev):

   -17.1620 -17.1417 -17.0681 -17.0121 -16.9994 -16.9808 -16.9711 -16.9316
   -16.8537 -16.8356  -1.8096  -0.2319   3.4995   5.3593   8.9042  12.4980
    13.3137  13.9823

     occupation numbers 
     1.0000   1.0000   1.0000   1.0000   1.0000   1.0000   1.0000   1.0000
     1.0000   1.0000   1.0000   1.0000   1.0000   1.0000   0.0000   0.0000
     0.0000   0.0000

          k =-0.0218-0.4351 0.4351 (  1650 PWs)   bands (ev):

   -17.1637 -17.1406 -17.0664 -17.0218 -17.0078 -16.9686 -16.9658 -16.9325
   -16.8552 -16.8349  -2.2586   0.2752   3.4866   5.6744   9.1408  12.9027
    13.3827  13.7550

     occupation numbers 
     1.0000   1.0000   1.0000   1.0000   1.0000   1.0000   1.0000   1.0000
     1.0000   1.0000   1.0000   1.0000   1.0000   1.0000   0.0000   0.0000
     0.0000   0.0000

          k = 0.0354-0.3807 0.3807 (  1648 PWs)   bands (ev):

   -17.1620 -17.1377 -17.0701 -17.0388 -17.0217 -16.9542 -16.9473 -16.9303
   -16.8590 -16.8381  -2.7769   0.8193   3.8959   6.0642   9.3575  12.2525
    12.6362  13.3413

     occupation numbers 
     1.0000   1.0000   1.0000   1.0000   1.0000   1.0000   1.0000   1.0000
     1.0000   1.0000   1.0000   1.0000   1.0000   1.0000   0.0000   0.0000
     0.0000   0.0000

          k = 0.0925-0.3264 0.3264 (  1650 PWs)   bands (ev):

   -17.1580 -17.1330 -17.0797 -17.0500 -17.0361 -16.9414 -16.9327 -16.9218
   -16.8651 -16.8439  -3.2275   1.2507   4.7290   6.4567   9.2257  11.6290
    11.7562  13.5257

     occupation numbers 
     1.0000   1.0000   1.0000   1.0000   1.0000   1.0000   1.0000   1.0000
     1.0000   1.0000   1.0000   1.0000   1.0000   1.0000   0.0000   0.0000
     0.0000   0.0000

          k = 0.1496-0.2720 0.2720 (  1640 PWs)   bands (ev):

   -17.1537 -17.1287 -17.0880 -17.0558 -17.0484 -16.9291 -16.9264 -16.9132
   -16.8704 -16.8500  -3.5711   1.6264   5.8280   6.7176   8.5434  11.1956
    11.5837  13.7960

     occupation numbers 
     1.0000   1.0000   1.0000   1.0000   1.0000   1.0000   1.0000   1.0000
     1.0000   1.0000   1.0000   1.0000   1.0000   1.0009   0.0000   0.0000
     0.0000   0.0000

          k = 0.2584-0.2720 0.2720 (  1636 PWs)   bands (ev):

   -17.1538 -17.1289 -17.0874 -17.0571 -17.0495 -16.9237 -16.9232 -16.9183
   -16.8707 -16.8499  -3.3468   1.0223   6.5101   6.5251   7.8617  11.1888
    11.5959  14.7082

     occupation numbers 
     1.0000   1.0000   1.0000   1.0000   1.0000   1.0000   1.0000   1.0000
     1.0000   1.0000   1.0000   1.0000   1.0000   1.0000   0.0216   0.0000
     0.0000   0.0000

          k = 0.3155-0.2176 0.2176 (  1634 PWs)   bands (ev):

   -17.1554 -17.1302 -17.0847 -17.0570 -17.0451 -16.9381 -16.9179 -16.9163
   -16.8706 -16.8474  -3.4359   1.3313   5.9629   6.2830   8.6536  11.1732
    11.7522  14.1411

     occupation numbers 
     1.0000   1.0000   1.0000   1.0000   1.0000   1.0000   1.0000   1.0000
     1.0000   1.0000   1.0000   1.0000   1.0000   1.0000   0.0000   0.0000
     0.0000   0.0000

          k = 0.3726-0.1632 0.1632 (  1634 PWs)   bands (ev):

   -17.1572 -17.1324 -17.0857 -17.0514 -17.0305 -16.9611 -16.9193 -16.9111
   -16.8688 -16.8447  -3.4007   1.5977   5.2074   5.8886   9.3087  11.1480
    12.5566  12.8170

     occupation numbers 
     1.0000   1.0000   1.0000   1.0000   1.0000   1.0000   1.0000   1.0000
     1.0000   1.0000   1.0000   1.0000   1.0000   1.0000   0.0000   0.0000
     0.0000   0.0000

          k = 0.4297-0.1088 0.1088 (  1641 PWs)   bands (ev):

   -17.1556 -17.1351 -17.0904 -17.0418 -17.0104 -16.9857 -16.9269 -16.9041
   -16.8651 -16.8458  -3.2372   1.6178   4.8073   5.4885   9.0367  10.6763
    12.9973  13.6149

     occupation numbers 
     1.0000   1.0000   1.0000   1.0000   1.0000   1.0000   1.0000   1.0000
     1.0000   1.0000   1.0000   1.0000   1.0000   1.0000   0.0000   0.0000
     0.0000   0.0000

          k = 0.4868-0.0544 0.0544 (  1655 PWs)   bands (ev):

   -17.1503 -17.1379 -17.0956 -17.0299 -17.0092 -16.9893 -16.9374 -16.8987
   -16.8608 -16.8503  -2.9459   1.2495   4.8550   5.1623   8.5101   9.6677
    14.3438  14.7277

     occupation numbers 
     1.0000   1.0000   1.0000   1.0000   1.0000   1.0000   1.0000   1.0000
     1.0000   1.0000   1.0000   1.0000   1.0000   1.0000   0.0000   0.0000
     0.0000   0.0000

          k = 0.5439 0.0000 0.0000 (  1646 PWs)   bands (ev):

   -17.1447 -17.1410 -17.0963 -17.0273 -17.0173 -16.9718 -16.9492 -16.8999
   -16.8563 -16.8539  -2.5336   0.6418   4.9439   4.9498   8.1863   9.0589
    15.2947  15.3981

     occupation numbers 
     1.0000   1.0000   1.0000   1.0000   1.0000   1.0000   1.0000   1.0000
     1.0000   1.0000   1.0000   1.0000   1.0000   1.0000   0.0001   0.0000
     0.0000   0.0000

          k = 0.6010 0.0544-0.0544 (  1650 PWs)   bands (ev):

   -17.1465 -17.1427 -17.0869 -17.0387 -17.0047 -16.9624 -16.9587 -16.9119
   -16.8535 -16.8500  -2.0201  -0.0193   4.6214   4.8627   8.3865   8.9828
    15.0815  15.7209

     occupation numbers 
     1.0000   1.0000   1.0000   1.0000   1.0000   1.0000   1.0000   1.0000
     1.0000   1.0000   1.0000   1.0000   1.0000   1.0000   0.0000   0.0000
     0.0000   0.0000

          k =-0.0843-0.5983 0.5983 (  1659 PWs)   bands (ev):

   -17.1543 -17.1429 -17.0723 -17.0398 -16.9930 -16.9747 -16.9563 -16.9277
   -16.8524 -16.8423  -1.4832  -0.6017   4.0566   4.9124   8.5261   9.8273
    14.7567  15.5476

     occupation numbers 
     1.0000   1.0000   1.0000   1.0000   1.0000   1.0000   1.0000   1.0000
     1.0000   1.0000   1.0000   1.0000   1.0000   1.0000   0.0000   0.0000
     0.0000   0.0000

          k =-0.0272-0.5439 0.5439 (  1648 PWs)   bands (ev):

   -17.1613 -17.1429 -17.0658 -17.0238 -16.9928 -16.9774 -16.9708 -16.9326
   -16.8523 -16.8359  -1.4775  -0.5764   3.6023   5.0931   8.6814  11.1795
    14.3401  15.0969

     occupation numbers 
     1.0000   1.0000   1.0000   1.0000   1.0000   1.0000   1.0000   1.0000
     1.0000   1.0000   1.0000   1.0000   1.0000   1.0000   0.0000   0.0000
     0.0000   0.0000

          k = 0.0299-0.4895 0.4895 (  1643 PWs)   bands (ev):

   -17.1649 -17.1419 -17.0657 -17.0084 -17.0054 -16.9876 -16.9639 -16.9315
   -16.8538 -16.8333  -1.9602  -0.0759   3.4858   5.3906   8.9436  12.7061
    13.5111  14.2111

     occupation numbers 
     1.0000   1.0000   1.0000   1.0000   1.0000   1.0000   1.0000   1.0000
     1.0000   1.0000   1.0000   1.0000   1.0000   1.0000   0.0000   0.0000
     0.0000   0.0000

          k = 0.0870-0.4351 0.4351 (  1647 PWs)   bands (ev):

   -17.1643 -17.1394 -17.0680 -17.0265 -17.0216 -16.9646 -16.9511 -16.9301
   -16.8572 -16.8351  -2.4302   0.3041   3.8471   5.7737   9.2193  12.2797
    13.0000  14.2309

     occupation numbers 
     1.0000   1.0000   1.0000   1.0000   1.0000   1.0000   1.0000   1.0000
     1.0000   1.0000   1.0000   1.0000   1.0000   1.0000   0.0000   0.0000
     0.0000   0.0000

          k = 0.1441-0.3807 0.3807 (  1649 PWs)   bands (ev):

   -17.1605 -17.1353 -17.0749 -17.0440 -17.0352 -16.9417 -16.9375 -16.9277
   -16.8625 -16.8406  -2.8306   0.5444   4.6495   6.1783   9.1595  11.5093
    12.0235  14.5841

     occupation numbers 
     1.0000   1.0000   1.0000   1.0000   1.0000   1.0000   1.0000   1.0000
     1.0000   1.0000   1.0000   1.0000   1.0000   1.0000   0.0000   0.0000
     0.0000   0.0000

          k = 0.2013-0.3264 0.3264 (  1647 PWs)   bands (ev):

   -17.1559 -17.1306 -17.0846 -17.0527 -17.0454 -16.9292 -16.9278 -16.9200
   -16.8683 -16.8470  -3.1412   0.7594   5.7048   6.4819   8.4474  11.3090
    11.5552  14.6744

     occupation numbers 
     1.0000   1.0000   1.0000   1.0000   1.0000   1.0000   1.0000   1.0000
     1.0000   1.0000   1.0000   1.0000   1.0000   1.0000   0.0000   0.0000
     0.0000   0.0000

          k = 0.3100-0.3264 0.3264 (  1641 PWs)   bands (ev):

   -17.1547 -17.1294 -17.0868 -17.0560 -17.0467 -16.9258 -16.9252 -16.9176
   -16.8704 -16.8485  -3.0113   0.4125   6.4138   6.4410   7.7707  11.1864
    11.5863  14.6997

     occupation numbers 
     1.0000   1.0000   1.0000   1.0000   1.0000   1.0000   1.0000   1.0000
     1.0000   1.0000   1.0000   1.0000   1.0000   1.0000   0.0670   0.0000
     0.0000   0.0000

          k = 0.3672-0.2720 0.2720 (  1643 PWs)   bands (ev):

   -17.1568 -17.1314 -17.0826 -17.0537 -17.0433 -16.9358 -16.9230 -16.9203
   -16.8685 -16.8456  -3.0368   0.5738   5.7786   6.2524   8.5015  11.2434
    11.6691  14.8220

     occupation numbers 
     1.0000   1.0000   1.0000   1.0000   1.0000   1.0000   1.0000   1.0000
     1.0000   1.0000   1.0000   1.0000   1.0000   1.0000   0.0000   0.0000
     0.0000   0.0000

          k = 0.4243-0.2176 0.2176 (  1634 PWs)   bands (ev):

   -17.1602 -17.1347 -17.0789 -17.0457 -17.0303 -16.9585 -16.9264 -16.9198
   -16.8648 -16.8408  -2.9652   0.7673   4.9028   5.8792   9.1993  11.3450
    12.4369  13.6538

     occupation numbers 
     1.0000   1.0000   1.0000   1.0000   1.0000   1.0000   1.0000   1.0000
     1.0000   1.0000   1.0000   1.0000   1.0000   1.0000   0.0000   0.0000
     0.0000   0.0000

          k = 0.4814-0.1632 0.1632 (  1643 PWs)   bands (ev):

   -17.1609 -17.1377 -17.0795 -17.0343 -17.0091 -16.9857 -16.9355 -16.9163
   -16.8608 -16.8391  -2.7875   0.8347   4.3333   5.4712   9.0795  11.5675
    12.8239  13.5401

     occupation numbers 
     1.0000   1.0000   1.0000   1.0000   1.0000   1.0000   1.0000   1.0000
     1.0000   1.0000   1.0000   1.0000   1.0000   1.0000   0.0000   0.0000
     0.0000   0.0000

          k = 0.5385-0.1088 0.1088 (  1646 PWs)   bands (ev):

   -17.1573 -17.1401 -17.0818 -17.0220 -17.0133 -16.9842 -16.9466 -16.9135
   -16.8571 -16.8418  -2.4981   0.5916   4.2649   5.1221   8.7049  10.2391
    14.1051  14.7928

     occupation numbers 
     1.0000   1.0000   1.0000   1.0000   1.0000   1.0000   1.0000   1.0000
     1.0000   1.0000   1.0000   1.0000   1.0000   1.0000   0.0000   0.0000
     0.0000   0.0000

          k = 0.5956-0.0544 0.0544 (  1653 PWs)   bands (ev):

   -17.1508 -17.1420 -17.0829 -17.0380 -17.0077 -16.9624 -16.9582 -16.9135
   -16.8541 -16.8469  -2.0978   0.0768   4.5602   4.8779   8.3760   9.0962
    15.4968  15.9571

     occupation numbers 
     1.0000   1.0000   1.0000   1.0000   1.0000   1.0000   1.0000   1.0000
     1.0000   1.0000   1.0000   1.0000   1.0000   1.0000   0.0000   0.0000
     0.0000   0.0000

          k = 0.6527 0.0000 0.0000 (  1646 PWs)   bands (ev):

   -17.1455 -17.1444 -17.0785 -17.0548 -16.9945 -16.9714 -16.9446 -16.9201
   -16.8511 -16.8504  -1.5967  -0.5305   4.7569   4.7592   8.2425   8.5374
    16.2994  16.3739

     occupation numbers 
     1.0000   1.0000   1.0000   1.0000   1.0000   1.0000   1.0000   1.0000
     1.0000   1.0000   1.0000   1.0000   1.0000   1.0000   0.0000   0.0000
     0.0000   0.0000

          k =-0.0326-0.6527 0.6527 (  1643 PWs)   bands (ev):

   -17.1497 -17.1436 -17.0671 -17.0607 -16.9848 -16.9815 -16.9378 -16.9320
   -16.8515 -16.8464  -1.1323  -1.0063   4.4836   4.7770   8.3959   8.7941
    15.9452  16.4616

     occupation numbers 
     1.0000   1.0000   1.0000   1.0000   1.0000   1.0000   1.0000   1.0000
     1.0000   1.0000   1.0000   1.0000   1.0000   1.0000   0.0000   0.0000
     0.0000   0.0000

          k = 0.0245-0.5983 0.5983 (  1648 PWs)   bands (ev):

   -17.1571 -17.1428 -17.0692 -17.0388 -16.9984 -16.9695 -16.9594 -16.9277
   -16.8525 -16.8401  -1.6430  -0.4254   4.0157   4.9276   8.5291   9.9103
    15.1095  15.8189

     occupation numbers 
     1.0000   1.0000   1.0000   1.0000   1.0000   1.0000   1.0000   1.0000
     1.0000   1.0000   1.0000   1.0000   1.0000   1.0000   0.0000   0.0000
     0.0000   0.0000

          k = 0.0816-0.5439 0.5439 (  1642 PWs)   bands (ev):

   -17.1626 -17.1416 -17.0705 -17.0150 -17.0081 -16.9867 -16.9560 -16.9257
   -16.8547 -16.8357  -2.0812   0.0607   3.7707   5.2004   8.8001  11.3588
    13.8201  14.5788

     occupation numbers 
     1.0000   1.0000   1.0000   1.0000   1.0000   1.0000   1.0000   1.0000
     1.0000   1.0000   1.0000   1.0000   1.0000   1.0000   0.0000   0.0000
     0.0000   0.0000

          k = 0.1387-0.4895 0.4895 (  1641 PWs)   bands (ev):

   -17.1640 -17.1393 -17.0714 -17.0277 -17.0142 -16.9784 -16.9441 -16.9255
   -16.8580 -16.8354  -2.4344   0.3057   4.0039   5.5693   9.1185  12.2337
    13.1836  13.3706

     occupation numbers 
     1.0000   1.0000   1.0000   1.0000   1.0000   1.0000   1.0000   1.0000
     1.0000   1.0000   1.0000   1.0000   1.0000   1.0000   0.0000   0.0000
     0.0000   0.0000

          k = 0.1958-0.4351 0.4351 (  1645 PWs)   bands (ev):

   -17.1614 -17.1357 -17.0748 -17.0418 -17.0336 -16.9512 -16.9330 -16.9259
   -16.8626 -16.8395  -2.7059   0.3434   4.7126   5.9791   9.1448  11.4131
    12.2420  14.6942

     occupation numbers 
     1.0000   1.0000   1.0000   1.0000   1.0000   1.0000   1.0000   1.0000
     1.0000   1.0000   1.0000   1.0000   1.0000   1.0000   0.0000   0.0000
     0.0000   0.0000

          k = 0.2529-0.3807 0.3807 (  1645 PWs)   bands (ev):

   -17.1570 -17.1315 -17.0825 -17.0522 -17.0436 -16.9316 -16.9264 -16.9225
   -16.8677 -16.8455  -2.8987   0.3424   5.6897   6.3220   8.4311  11.2969
    11.5771  14.9424

     occupation numbers 
     1.0000   1.0000   1.0000   1.0000   1.0000   1.0000   1.0000   1.0000
     1.0000   1.0000   1.0000   1.0000   1.0000   1.0000   0.0000   0.0000
     0.0000   0.0000

          k = 0.0054 0.1088-0.0000 (  1650 PWs)   bands (ev):

   -17.1400 -17.1164 -17.0966 -17.0795 -17.0700 -16.9248 -16.8942 -16.8925
   -16.8892 -16.8697  -4.6763   5.9264   7.2235   7.2451   8.7215   9.7635
    10.7015  10.7087

     occupation numbers 
     1.0000   1.0000   1.0000   1.0000   1.0000   1.0000   1.0000   1.0000
     1.0000   1.0000   1.0000   1.0000   1.0766   1.0671   0.0000   0.0000
     0.0000   0.0000

          k = 0.0626 0.1632-0.0544 (  1650 PWs)   bands (ev):

   -17.1390 -17.1192 -17.1053 -17.0718 -17.0580 -16.9331 -16.9033 -16.8897
   -16.8837 -16.8681  -4.5061   4.9323   6.8463   7.0073   8.9072   9.7327
    11.0890  11.5237

     occupation numbers 
     1.0000   1.0000   1.0000   1.0000   1.0000   1.0000   1.0000   1.0000
     1.0000   1.0000   1.0000   1.0000   1.0063   1.0367   0.0000   0.0000
     0.0000   0.0000

          k = 0.1197 0.2176-0.1088 (  1657 PWs)   bands (ev):

   -17.1383 -17.1218 -17.1110 -17.0610 -17.0471 -16.9408 -16.9141 -16.8906
   -16.8780 -16.8654  -4.1979   3.6581   6.4905   6.6563   8.7391  10.1223
    11.5482  12.3716

     occupation numbers 
     1.0000   1.0000   1.0000   1.0000   1.0000   1.0000   1.0000   1.0000
     1.0000   1.0000   1.0000   1.0000   1.0000   1.0003   0.0000   0.0000
     0.0000   0.0000

          k = 0.1768 0.2720-0.1632 (  1653 PWs)   bands (ev):

   -17.1390 -17.1242 -17.1110 -17.0508 -17.0395 -16.9453 -16.9237 -16.8957
   -16.8736 -16.8618  -3.7657   2.3947   6.2050   6.2822   8.4758  10.5801
    11.7952  13.0690

     occupation numbers 
     1.0000   1.0000   1.0000   1.0000   1.0000   1.0000   1.0000   1.0000
     1.0000   1.0000   1.0000   1.0000   1.0000   1.0000   0.0000   0.0000
     0.0000   0.0000

          k = 0.2339 0.3264-0.2176 (  1650 PWs)   bands (ev):

   -17.1407 -17.1262 -17.1068 -17.0434 -17.0358 -16.9457 -16.9311 -16.9025
   -16.8710 -16.8583  -3.2472   1.2644   5.9042   6.0839   8.2558  10.8239
    11.7869  13.8662

     occupation numbers 
     1.0000   1.0000   1.0000   1.0000   1.0000   1.0000   1.0000   1.0000
     1.0000   1.0000   1.0000   1.0000   1.0000   1.0000   0.0000   0.0000
     0.0000   0.0000

          k = 0.2910 0.3807-0.2720 (  1647 PWs)   bands (ev):

   -17.1429 -17.1269 -17.1020 -17.0409 -17.0335 -16.9434 -16.9356 -16.9091
   -16.8700 -16.8552  -2.7558   0.4165   5.6572   6.0345   8.1200  10.9238
    11.6673  14.5352

     occupation numbers 
     1.0000   1.0000   1.0000   1.0000   1.0000   1.0000   1.0000   1.0000
     1.0000   1.0000   1.0000   1.0000   1.0000   1.0000   0.0003   0.0000
     0.0000   0.0000

          k =-0.3943-0.2720 0.3807 (  1644 PWs)   bands (ev):

   -17.1451 -17.1265 -17.0989 -17.0426 -17.0317 -16.9430 -16.9343 -16.9135
   -16.8703 -16.8531  -2.5891   0.1639   5.5133   6.0994   8.0817  11.0192
    11.5549  14.7159

     occupation numbers 
     1.0000   1.0000   1.0000   1.0000   1.0000   1.0000   1.0000   1.0000
     1.0000   1.0000   1.0000   1.0000   1.0000   1.0000   0.0006   0.0000
     0.0000   0.0000

          k =-0.3372-0.2176 0.3264 (  1648 PWs)   bands (ev):

   -17.1467 -17.1251 -17.0989 -17.0455 -17.0326 -16.9432 -16.9308 -16.9131
   -16.8719 -16.8521  -2.9217   0.6840   5.4859   6.2693   8.1440  11.1443
    11.4886  14.7140

     occupation numbers 
     1.0000   1.0000   1.0000   1.0000   1.0000   1.0000   1.0000   1.0000
     1.0000   1.0000   1.0000   1.0000   1.0000   1.0000   0.0002   0.0000
     0.0000   0.0000

          k =-0.2801-0.1632 0.2720 (  1654 PWs)   bands (ev):

   -17.1473 -17.1228 -17.1016 -17.0494 -17.0376 -16.9405 -16.9288 -16.9070
   -16.8748 -16.8528  -3.4458   1.6594   5.5859   6.5309   8.3001  11.1954
    11.4679  14.0170

     occupation numbers 
     1.0000   1.0000   1.0000   1.0000   1.0000   1.0000   1.0000   1.0000
     1.0000   1.0000   1.0000   1.0000   1.0000   1.0000   0.0000   0.0000
     0.0000   0.0000

          k =-0.2230-0.1088 0.2176 (  1645 PWs)   bands (ev):

   -17.1462 -17.1201 -17.1046 -17.0553 -17.0463 -16.9346 -16.9256 -16.8982
   -16.8792 -16.8556  -3.9392   2.8403   5.8273   6.8616   8.5227  11.0013
    11.3871  12.9404

     occupation numbers 
     1.0000   1.0000   1.0000   1.0000   1.0000   1.0000   1.0000   1.0000
     1.0000   1.0000   1.0000   1.0000   1.0000   1.0077   0.0000   0.0000
     0.0000   0.0000

          k =-0.1659-0.0544 0.1632 (  1653 PWs)   bands (ev):

   -17.1440 -17.1189 -17.1034 -17.0638 -17.0573 -16.9277 -16.9193 -16.8898
   -16.8846 -16.8605  -4.3279   4.0849   6.2381   7.2150   8.7195  10.6231
    10.9813  12.0180

     occupation numbers 
     1.0000   1.0000   1.0000   1.0000   1.0000   1.0000   1.0000   1.0000
     1.0000   1.0000   1.0000   1.0000   1.0000   1.0792   0.0000   0.0000
     0.0000   0.0000

          k =-0.1088 0.0000 0.1088 (  1648 PWs)   bands (ev):

   -17.1418 -17.1184 -17.0968 -17.0735 -17.0688 -16.9216 -16.9104 -16.8912
   -16.8829 -16.8667  -4.5858   5.2090   6.8723   7.4835   8.6377  10.3441
    10.4427  11.2109

     occupation numbers 
     1.0000   1.0000   1.0000   1.0000   1.0000   1.0000   1.0000   1.0000
     1.0000   1.0000   1.0000   1.0000   1.0088   0.6228   0.0000   0.0000
     0.0000   0.0000

          k = 0.0000 0.0000 0.1088 (  1665 PWs)   bands (ev):

   -17.1406 -17.1178 -17.0921 -17.0783 -17.0745 -16.9158 -16.9120 -16.8910
   -16.8785 -16.8727  -4.6769   5.9027   7.1584   7.3346   8.7178   9.9146
    10.3449  10.9307

     occupation numbers 
     1.0000   1.0000   1.0000   1.0000   1.0000   1.0000   1.0000   1.0000
     1.0000   1.0000   1.0000   1.0000   1.0817   0.9712   0.0000   0.0000
     0.0000   0.0000

          k = 0.1142 0.1088-0.0000 (  1650 PWs)   bands (ev):

   -17.1369 -17.1185 -17.1061 -17.0734 -17.0607 -16.9303 -16.9018 -16.8912
   -16.8806 -16.8722  -4.5713   5.2650   6.9488   7.4788   8.3916   9.9924
    10.4520  11.5055

     occupation numbers 
     1.0000   1.0000   1.0000   1.0000   1.0000   1.0000   1.0000   1.0000
     1.0000   1.0000   1.0000   1.0000   1.0212   0.6360   0.0000   0.0000
     0.0000   0.0000

          k = 0.1713 0.1632-0.0544 (  1657 PWs)   bands (ev):

   -17.1339 -17.1225 -17.1137 -17.0636 -17.0490 -16.9385 -16.9131 -16.8872
   -16.8755 -16.8722  -4.3062   4.0565   6.4073   7.2362   8.4817  10.3401
    10.7810  12.3466

     occupation numbers 
     1.0000   1.0000   1.0000   1.0000   1.0000   1.0000   1.0000   1.0000
     1.0000   1.0000   1.0000   1.0000   1.0000   1.0716   0.0000   0.0000
     0.0000   0.0000

          k = 0.2284 0.2176-0.1088 (  1655 PWs)   bands (ev):

   -17.1347 -17.1210 -17.1188 -17.0531 -17.0401 -16.9440 -16.9233 -16.8911
   -16.8721 -16.8675  -3.9110   2.7850   5.9912   6.8947   8.3287  10.7443
    11.3078  12.9515

     occupation numbers 
     1.0000   1.0000   1.0000   1.0000   1.0000   1.0000   1.0000   1.0000
     1.0000   1.0000   1.0000   1.0000   1.0000   1.0116   0.0000   0.0000
     0.0000   0.0000

          k = 0.2856 0.2720-0.1632 (  1656 PWs)   bands (ev):

   -17.1391 -17.1212 -17.1145 -17.0441 -17.0362 -16.9449 -16.9315 -16.8991
   -16.8707 -16.8611  -3.4131   1.6037   5.7004   6.5667   8.1578  11.0081
    11.4886  13.7582

     occupation numbers 
     1.0000   1.0000   1.0000   1.0000   1.0000   1.0000   1.0000   1.0000
     1.0000   1.0000   1.0000   1.0000   1.0000   1.0000   0.0001   0.0000
     0.0000   0.0000

          k = 0.3427 0.3264-0.2176 (  1646 PWs)   bands (ev):

   -17.1437 -17.1214 -17.1078 -17.0371 -17.0368 -16.9416 -16.9375 -16.9073
   -16.8712 -16.8553  -2.8914   0.6428   5.5338   6.3009   8.0574  11.1465
    11.3933  14.5833

     occupation numbers 
     1.0000   1.0000   1.0000   1.0000   1.0000   1.0000   1.0000   1.0000
     1.0000   1.0000   1.0000   1.0000   1.0000   1.0000   0.0009   0.0000
     0.0000   0.0000

          k =-0.3427-0.3264 0.4351 (  1638 PWs)   bands (ev):

   -17.1476 -17.1201 -17.1033 -17.0401 -17.0326 -16.9419 -16.9364 -16.9123
   -16.8733 -16.8510  -2.5793   0.1578   5.4894   6.1207   8.0531  11.2629
    11.2711  14.7975

     occupation numbers 
     1.0000   1.0000   1.0000   1.0000   1.0000   1.0000   1.0000   1.0000
     1.0000   1.0000   1.0000   1.0000   1.0000   1.0000   0.0010   0.0000
     0.0000   0.0000

          k =-0.2856-0.2720 0.3807 (  1642 PWs)   bands (ev):

   -17.1502 -17.1180 -17.1025 -17.0441 -17.0313 -16.9449 -16.9313 -16.9121
   -16.8762 -16.8487  -2.7728   0.4515   5.5648   6.0399   8.1498  11.2041
    11.4079  14.7854

     occupation numbers 
     1.0000   1.0000   1.0000   1.0000   1.0000   1.0000   1.0000   1.0000
     1.0000   1.0000   1.0000   1.0000   1.0000   1.0000   0.0001   0.0000
     0.0000   0.0000

          k =-0.2284-0.2176 0.3264 (  1652 PWs)   bands (ev):

   -17.1511 -17.1153 -17.1053 -17.0484 -17.0345 -16.9447 -16.9271 -16.9070
   -16.8795 -16.8488  -3.2712   1.3183   5.7573   6.0672   8.3410  11.1700
    11.5505  14.3137

     occupation numbers 
     1.0000   1.0000   1.0000   1.0000   1.0000   1.0000   1.0000   1.0000
     1.0000   1.0000   1.0000   1.0000   1.0000   1.0000   0.0000   0.0000
     0.0000   0.0000

          k =-0.1713-0.1632 0.2720 (  1650 PWs)   bands (ev):

   -17.1498 -17.1115 -17.1103 -17.0538 -17.0423 -16.9402 -16.9233 -16.8987
   -16.8831 -16.8517  -3.7867   2.4513   6.0636   6.2057   8.6057  11.0451
    11.5757  13.2626

     occupation numbers 
     1.0000   1.0000   1.0000   1.0000   1.0000   1.0000   1.0000   1.0000
     1.0000   1.0000   1.0000   1.0000   1.0000   1.0000   0.0000   0.0000
     0.0000   0.0000

          k =-0.1142-0.1088 0.2176 (  1649 PWs)   bands (ev):

   -17.1466 -17.1157 -17.1061 -17.0612 -17.0532 -16.9323 -16.9191 -16.8896
   -16.8872 -16.8572  -4.2129   3.6999   6.4505   6.4754   8.8889  10.6577
    11.3454  12.2633

     occupation numbers 
     1.0000   1.0000   1.0000   1.0000   1.0000   1.0000   1.0000   1.0000
     1.0000   1.0000   1.0000   1.0000   1.0000   1.0000   0.0000   0.0000
     0.0000   0.0000

          k =-0.0571-0.0544 0.1632 (  1644 PWs)   bands (ev):

   -17.1428 -17.1187 -17.0988 -17.0705 -17.0648 -16.9225 -16.9154 -16.8909
   -16.8816 -16.8651  -4.5141   4.9315   6.7849   6.9487   9.0435  10.0953
    10.8745  11.4517

     occupation numbers 
     1.0000   1.0000   1.0000   1.0000   1.0000   1.0000   1.0000   1.0000
     1.0000   1.0000   1.0000   1.0000   1.0026   1.0212   0.0000   0.0000
     0.0000   0.0000

          k = 0.0517-0.0544 0.1632 (  1640 PWs)   bands (ev):

   -17.1432 -17.1207 -17.0943 -17.0732 -17.0658 -16.9219 -16.9128 -16.8971
   -16.8746 -16.8675  -4.5214   4.8319   6.9523   7.0229   9.0427   9.8239
    11.1763  11.3665

     occupation numbers 
     1.0000   1.0000   1.0000   1.0000   1.0000   1.0000   1.0000   1.0000
     1.0000   1.0000   1.0000   1.0000   1.0220   1.0416   0.0000   0.0000
     0.0000   0.0000

          k = 0.2230 0.1088-0.0000 (  1657 PWs)   bands (ev):

   -17.1338 -17.1243 -17.1136 -17.0641 -17.0448 -16.9450 -16.9104 -16.8829
   -16.8773 -16.8728  -4.2855   4.0882   6.2531   6.8616   9.1716   9.6472
    11.2933  12.3220

     occupation numbers 
     1.0000   1.0000   1.0000   1.0000   1.0000   1.0000   1.0000   1.0000
     1.0000   1.0000   1.0000   1.0000   1.0000   1.0077   0.0000   0.0000
     0.0000   0.0000

          k = 0.2801 0.1632-0.0544 (  1657 PWs)   bands (ev):

   -17.1328 -17.1256 -17.1183 -17.0542 -17.0334 -16.9542 -16.9203 -16.8848
   -16.8725 -16.8697  -3.9305   2.9987   5.6762   6.6204   9.1288  10.0631
    11.7459  12.5273

     occupation numbers 
     1.0000   1.0000   1.0000   1.0000   1.0000   1.0000   1.0000   1.0000
     1.0000   1.0000   1.0000   1.0000   1.0000   1.0001   0.0000   0.0000
     0.0000   0.0000

          k = 0.3372 0.2176-0.1088 (  1656 PWs)   bands (ev):

   -17.1399 -17.1254 -17.1121 -17.0446 -17.0268 -16.9583 -16.9293 -16.8965
   -16.8687 -16.8609  -3.4609   1.8749   5.2653   6.3151   8.9446  10.5906
    12.0224  12.7818

     occupation numbers 
     1.0000   1.0000   1.0000   1.0000   1.0000   1.0000   1.0000   1.0000
     1.0000   1.0000   1.0000   1.0000   1.0000   1.0000   0.0000   0.0000
     0.0000   0.0000

          k = 0.3943 0.2720-0.1632 (  1654 PWs)   bands (ev):

   -17.1466 -17.1265 -17.1022 -17.0362 -17.0267 -16.9558 -16.9371 -16.9086
   -16.8675 -16.8528  -2.9308   0.8750   4.9949   6.0638   8.7940  10.8526
    11.9872  13.6150

     occupation numbers 
     1.0000   1.0000   1.0000   1.0000   1.0000   1.0000   1.0000   1.0000
     1.0000   1.0000   1.0000   1.0000   1.0000   1.0000   0.0000   0.0000
     0.0000   0.0000

          k =-0.2910-0.3807 0.4895 (  1640 PWs)   bands (ev):

   -17.1518 -17.1262 -17.0944 -17.0313 -17.0292 -16.9483 -16.9446 -16.9176
   -16.8680 -16.8469  -2.5094   0.2168   4.8450   5.9193   8.7262  10.9293
    11.9358  14.6453

     occupation numbers 
     1.0000   1.0000   1.0000   1.0000   1.0000   1.0000   1.0000   1.0000
     1.0000   1.0000   1.0000   1.0000   1.0000   1.0000   0.0000   0.0000
     0.0000   0.0000

          k =-0.2339-0.3264 0.4351 (  1642 PWs)   bands (ev):

   -17.1551 -17.1249 -17.0909 -17.0378 -17.0250 -16.9515 -16.9384 -16.9210
   -16.8701 -16.8437  -2.5393   0.2605   4.8072   5.9040   8.7549  10.9842
    11.9440  14.9976

     occupation numbers 
     1.0000   1.0000   1.0000   1.0000   1.0000   1.0000   1.0000   1.0000
     1.0000   1.0000   1.0000   1.0000   1.0000   1.0000   0.0000   0.0000
     0.0000   0.0000

          k =-0.1768-0.2720 0.3807 (  1646 PWs)   bands (ev):

   -17.1560 -17.1229 -17.0926 -17.0445 -17.0258 -16.9543 -16.9296 -16.9175
   -16.8734 -16.8436  -2.9869   0.9695   4.8874   6.0205   8.8772  11.0479
    11.9958  14.1622

     occupation numbers 
     1.0000   1.0000   1.0000   1.0000   1.0000   1.0000   1.0000   1.0000
     1.0000   1.0000   1.0000   1.0000   1.0000   1.0000   0.0000   0.0000
     0.0000   0.0000

          k =-0.1197-0.2176 0.3264 (  1649 PWs)   bands (ev):

   -17.1545 -17.1203 -17.0978 -17.0510 -17.0326 -16.9511 -16.9243 -16.9070
   -16.8777 -16.8465  -3.5150   1.9796   5.1082   6.2537   9.0731  10.9989
    12.0053  13.1231

     occupation numbers 
     1.0000   1.0000   1.0000   1.0000   1.0000   1.0000   1.0000   1.0000
     1.0000   1.0000   1.0000   1.0000   1.0000   1.0000   0.0000   0.0000
     0.0000   0.0000

          k =-0.0626-0.1632 0.2720 (  1644 PWs)   bands (ev):

   -17.1507 -17.1190 -17.1018 -17.0581 -17.0433 -16.9435 -16.9192 -16.8964
   -16.8817 -16.8523  -3.9738   3.0732   5.5130   6.5685   9.2860  10.5879
    11.8165  12.4950

     occupation numbers 
     1.0000   1.0000   1.0000   1.0000   1.0000   1.0000   1.0000   1.0000
     1.0000   1.0000   1.0000   1.0000   1.0000   1.0000   0.0000   0.0000
     0.0000   0.0000

          k =-0.0054-0.1088 0.2176 (  1644 PWs)   bands (ev):

   -17.1462 -17.1207 -17.0994 -17.0663 -17.0553 -16.9333 -16.9137 -16.8956
   -16.8785 -16.8603  -4.3151   4.0747   6.1571   6.8798   9.3795   9.9642
    11.4530  12.0626

     occupation numbers 
     1.0000   1.0000   1.0000   1.0000   1.0000   1.0000   1.0000   1.0000
     1.0000   1.0000   1.0000   1.0000   1.0000   1.0097   0.0000   0.0000
     0.0000   0.0000

          k = 0.1033-0.1088 0.2176 (  1633 PWs)   bands (ev):

   -17.1470 -17.1241 -17.0946 -17.0654 -17.0576 -16.9297 -16.9115 -16.9056
   -16.8718 -16.8610  -4.2437   3.5470   6.6983   6.7163   8.9506  10.1121
    11.7637  12.1942

     occupation numbers 
     1.0000   1.0000   1.0000   1.0000   1.0000   1.0000   1.0000   1.0000
     1.0000   1.0000   1.0000   1.0000   1.0006   1.0008   0.0000   0.0000
     0.0000   0.0000

          k = 0.1605-0.0544 0.1632 (  1642 PWs)   bands (ev):

   -17.1461 -17.1220 -17.0951 -17.0676 -17.0609 -16.9241 -16.9177 -16.8980
   -16.8780 -16.8601  -4.3499   3.9809   6.4078   7.2878   8.7936  10.6164
    10.9302  12.0545

     occupation numbers 
     1.0000   1.0000   1.0000   1.0000   1.0000   1.0000   1.0000   1.0000
     1.0000   1.0000   1.0000   1.0000   1.0000   1.0334   0.0000   0.0000
     0.0000   0.0000

          k = 0.2176-0.0000 0.1088 (  1649 PWs)   bands (ev):

   -17.1441 -17.1218 -17.1020 -17.0671 -17.0512 -16.9395 -16.9086 -16.8906
   -16.8834 -16.8608  -4.3141   4.0888   6.1504   6.8902   9.3745   9.8861
    11.5467  12.0137

     occupation numbers 
     1.0000   1.0000   1.0000   1.0000   1.0000   1.0000   1.0000   1.0000
     1.0000   1.0000   1.0000   1.0000   1.0000   1.0110   0.0000   0.0000
     0.0000   0.0000

          k = 0.3318 0.1088-0.0000 (  1652 PWs)   bands (ev):

   -17.1321 -17.1310 -17.1172 -17.0514 -17.0233 -16.9686 -16.9194 -16.8776
   -16.8724 -16.8717  -3.8231   2.8656   5.5663   6.0881   9.1619   9.8899
    12.4069  12.5918

     occupation numbers 
     1.0000   1.0000   1.0000   1.0000   1.0000   1.0000   1.0000   1.0000
     1.0000   1.0000   1.0000   1.0000   1.0000   1.0000   0.0000   0.0000
     0.0000   0.0000

          k = 0.3889 0.1632-0.0544 (  1657 PWs)   bands (ev):

   -17.1404 -17.1292 -17.1117 -17.0413 -17.0132 -16.9772 -16.9296 -16.8914
   -16.8674 -16.8604  -3.3868   1.9274   5.0101   5.8495   9.3714  10.1230
    12.1587  13.0334

     occupation numbers 
     1.0000   1.0000   1.0000   1.0000   1.0000   1.0000   1.0000   1.0000
     1.0000   1.0000   1.0000   1.0000   1.0000   1.0000   0.0000   0.0000
     0.0000   0.0000

          k = 0.4460 0.2176-0.1088 (  1646 PWs)   bands (ev):

   -17.1487 -17.1312 -17.0987 -17.0313 -17.0116 -16.9766 -16.9398 -16.9069
   -16.8640 -16.8503  -2.8646   0.9972   4.5726   5.6315   9.3167  10.7443
    12.1843  13.2145

     occupation numbers 
     1.0000   1.0000   1.0000   1.0000   1.0000   1.0000   1.0000   1.0000
     1.0000   1.0000   1.0000   1.0000   1.0000   1.0000   0.0000   0.0000
     0.0000   0.0000

          k =-0.2393-0.4351 0.5439 (  1644 PWs)   bands (ev):

   -17.1555 -17.1325 -17.0866 -17.0222 -17.0170 -16.9686 -16.9501 -16.9199
   -16.8623 -16.8428  -2.3723   0.2612   4.2591   5.5366   9.2736  10.9816
    12.7324  13.4804

     occupation numbers 
     1.0000   1.0000   1.0000   1.0000   1.0000   1.0000   1.0000   1.0000
     1.0000   1.0000   1.0000   1.0000   1.0000   1.0000   0.0000   0.0000
     0.0000   0.0000

          k =-0.1822-0.3807 0.4895 (  1645 PWs)   bands (ev):

   -17.1597 -17.1327 -17.0791 -17.0259 -17.0151 -16.9614 -16.9553 -16.9272
   -16.8623 -16.8386  -2.2361   0.0786   4.0839   5.5874   9.3141  11.0033
    12.8850  14.4918

     occupation numbers 
     1.0000   1.0000   1.0000   1.0000   1.0000   1.0000   1.0000   1.0000
     1.0000   1.0000   1.0000   1.0000   1.0000   1.0000   0.0000   0.0000
     0.0000   0.0000

          k =-0.1251-0.3264 0.4351 (  1649 PWs)   bands (ev):

   -17.1609 -17.1317 -17.0779 -17.0361 -17.0147 -16.9647 -16.9411 -16.9292
   -16.8641 -16.8382  -2.6099   0.6014   4.0775   5.7744   9.4304  11.0520
    12.8222  14.0786

     occupation numbers 
     1.0000   1.0000   1.0000   1.0000   1.0000   1.0000   1.0000   1.0000
     1.0000   1.0000   1.0000   1.0000   1.0000   1.0000   0.0000   0.0000
     0.0000   0.0000

          k =-0.0680-0.2720 0.3807 (  1645 PWs)   bands (ev):

   -17.1592 -17.1295 -17.0832 -17.0454 -17.0223 -16.9607 -16.9281 -16.9234
   -16.8676 -16.8413  -3.1396   1.4307   4.2950   6.0699   9.5866  11.0598
    12.5646  13.0418

     occupation numbers 
     1.0000   1.0000   1.0000   1.0000   1.0000   1.0000   1.0000   1.0000
     1.0000   1.0000   1.0000   1.0000   1.0000   1.0000   0.0000   0.0000
     0.0000   0.0000

          k =-0.0109-0.2176 0.3264 (  1640 PWs)   bands (ev):

   -17.1551 -17.1265 -17.0916 -17.0528 -17.0342 -16.9520 -16.9233 -16.9085
   -16.8721 -16.8473  -3.6231   2.2699   4.8187   6.4193   9.7005  10.6443
    12.3391  12.4385

     occupation numbers 
     1.0000   1.0000   1.0000   1.0000   1.0000   1.0000   1.0000   1.0000
     1.0000   1.0000   1.0000   1.0000   1.0000   1.0000   0.0000   0.0000
     0.0000   0.0000

          k = 0.0462-0.1632 0.2720 (  1638 PWs)   bands (ev):

   -17.1501 -17.1248 -17.0961 -17.0596 -17.0469 -16.9413 -16.9165 -16.9022
   -16.8736 -16.8550  -3.9984   2.9759   5.6795   6.7029   9.5056  10.1127
    12.0181  12.4245

     occupation numbers 
     1.0000   1.0000   1.0000   1.0000   1.0000   1.0000   1.0000   1.0000
     1.0000   1.0000   1.0000   1.0000   1.0000   1.0007   0.0000   0.0000
     0.0000   0.0000

          k = 0.1550-0.1632 0.2720 (  1636 PWs)   bands (ev):

   -17.1505 -17.1274 -17.0927 -17.0573 -17.0520 -16.9345 -16.9139 -16.9121
   -16.8696 -16.8555  -3.8612   2.3290   6.3793   6.4726   8.7492  10.5412
    11.9692  12.9787

     occupation numbers 
     1.0000   1.0000   1.0000   1.0000   1.0000   1.0000   1.0000   1.0000
     1.0000   1.0000   1.0000   1.0000   1.0000   1.0000   0.0000   0.0000
     0.0000   0.0000

          k = 0.2121-0.1088 0.2176 (  1635 PWs)   bands (ev):

   -17.1504 -17.1257 -17.0919 -17.0611 -17.0536 -16.9273 -16.9231 -16.9053
   -16.8736 -16.8544  -4.0013   2.7406   6.0662   6.9978   8.6889  10.9411
    11.4332  12.8690

     occupation numbers 
     1.0000   1.0000   1.0000   1.0000   1.0000   1.0000   1.0000   1.0000
     1.0000   1.0000   1.0000   1.0000   1.0000   1.0338   0.0000   0.0000
     0.0000   0.0000

          k = 0.2692-0.0544 0.1632 (  1639 PWs)   bands (ev):

   -17.1499 -17.1257 -17.0958 -17.0610 -17.0439 -16.9453 -16.9148 -16.8994
   -16.8768 -16.8536  -4.0032   3.0169   5.6282   6.6602   9.3844  10.4911
    11.8656  12.4661

     occupation numbers 
     1.0000   1.0000   1.0000   1.0000   1.0000   1.0000   1.0000   1.0000
     1.0000   1.0000   1.0000   1.0000   1.0000   1.0003   0.0000   0.0000
     0.0000   0.0000

          k = 0.3264 0.0000 0.1088 (  1647 PWs)   bands (ev):

   -17.1459 -17.1285 -17.1036 -17.0552 -17.0288 -16.9645 -16.9150 -16.8919
   -16.8743 -16.8574  -3.8658   2.9165   5.4760   6.0909   9.2790  10.1669
    12.3744  12.8264

     occupation numbers 
     1.0000   1.0000   1.0000   1.0000   1.0000   1.0000   1.0000   1.0000
     1.0000   1.0000   1.0000   1.0000   1.0000   1.0000   0.0000   0.0000
     0.0000   0.0000

          k = 0.4406 0.1088 0.0000 (  1642 PWs)   bands (ev):

   -17.1402 -17.1337 -17.1104 -17.0347 -16.9987 -16.9958 -16.9338 -16.8880
   -16.8652 -16.8601  -3.1917   1.6563   5.0166   5.4317   8.8258   9.8064
    12.8279  13.9907

     occupation numbers 
     1.0000   1.0000   1.0000   1.0000   1.0000   1.0000   1.0000   1.0000
     1.0000   1.0000   1.0000   1.0000   1.0000   1.0000   0.0000   0.0000
     0.0000   0.0000

          k = 0.4977 0.1632-0.0544 (  1652 PWs)   bands (ev):

   -17.1485 -17.1351 -17.0976 -17.0237 -17.0055 -16.9874 -16.9453 -16.9043
   -16.8609 -16.8500  -2.6886   0.8667   4.4903   5.2240   9.1281  10.1318
    12.5228  14.3804

     occupation numbers 
     1.0000   1.0000   1.0000   1.0000   1.0000   1.0000   1.0000   1.0000
     1.0000   1.0000   1.0000   1.0000   1.0000   1.0000   0.0000   0.0000
     0.0000   0.0000

          k =-0.1877-0.4895 0.5983 (  1653 PWs)   bands (ev):

   -17.1567 -17.1371 -17.0822 -17.0130 -17.0100 -16.9808 -16.9573 -16.9207
   -16.8580 -16.8411  -2.1580   0.1557   4.0093   5.1382   9.2042  11.1373
    12.2945  14.3961

     occupation numbers 
     1.0000   1.0000   1.0000   1.0000   1.0000   1.0000   1.0000   1.0000
     1.0000   1.0000   1.0000   1.0000   1.0000   1.0000   0.0000   0.0000
     0.0000   0.0000

          k =-0.1305-0.4351 0.5439 (  1650 PWs)   bands (ev):

   -17.1623 -17.1382 -17.0712 -17.0129 -17.0039 -16.9775 -16.9673 -16.9308
   -16.8567 -16.8354  -1.8775  -0.1780   3.6790   5.2098   9.3195  11.7481
    12.8341  14.2441

     occupation numbers 
     1.0000   1.0000   1.0000   1.0000   1.0000   1.0000   1.0000   1.0000
     1.0000   1.0000   1.0000   1.0000   1.0000   1.0000   0.0000   0.0000
     0.0000   0.0000

          k =-0.0734-0.3807 0.4895 (  1647 PWs)   bands (ev):

   -17.1645 -17.1381 -17.0672 -17.0223 -17.0042 -16.9751 -16.9609 -16.9334
   -16.8572 -16.8339  -2.1746   0.1792   3.5819   5.4241   9.5230  11.7082
    13.6336  13.9946

     occupation numbers 
     1.0000   1.0000   1.0000   1.0000   1.0000   1.0000   1.0000   1.0000
     1.0000   1.0000   1.0000   1.0000   1.0000   1.0000   0.0000   0.0000
     0.0000   0.0000

          k =-0.0163-0.3264 0.4351 (  1646 PWs)   bands (ev):

   -17.1631 -17.1365 -17.0706 -17.0364 -17.0147 -16.9673 -16.9421 -16.9317
   -16.8597 -16.8367  -2.6974   0.8146   3.8046   5.7512   9.7569  11.6044
    12.6155  13.6695

     occupation numbers 
     1.0000   1.0000   1.0000   1.0000   1.0000   1.0000   1.0000   1.0000
     1.0000   1.0000   1.0000   1.0000   1.0000   1.0000   0.0000   0.0000
     0.0000   0.0000

          k = 0.0408-0.2720 0.3807 (  1638 PWs)   bands (ev):

   -17.1588 -17.1334 -17.0804 -17.0465 -17.0282 -16.9567 -16.9275 -16.9227
   -16.8640 -16.8428  -3.1916   1.4020   4.4147   6.1324   9.8281  11.0399
    12.2395  13.0317

     occupation numbers 
     1.0000   1.0000   1.0000   1.0000   1.0000   1.0000   1.0000   1.0000
     1.0000   1.0000   1.0000   1.0000   1.0000   1.0000   0.0000   0.0000
     0.0000   0.0000

          k = 0.0979-0.2176 0.3264 (  1643 PWs)   bands (ev):

   -17.1536 -17.1298 -17.0901 -17.0528 -17.0415 -16.9455 -16.9212 -16.9105
   -16.8682 -16.8503  -3.5877   1.8882   5.3554   6.4384   9.3729  10.5835
    12.2072  12.8013

     occupation numbers 
     1.0000   1.0000   1.0000   1.0000   1.0000   1.0000   1.0000   1.0000
     1.0000   1.0000   1.0000   1.0000   1.0000   1.0000   0.0000   0.0000
     0.0000   0.0000

          k = 0.2067-0.2176 0.3264 (  1642 PWs)   bands (ev):

   -17.1532 -17.1303 -17.0892 -17.0504 -17.0499 -16.9360 -16.9208 -16.9140
   -16.8677 -16.8512  -3.4180   1.2830   6.0794   6.3198   8.5822  10.8372
    11.9760  13.7296

     occupation numbers 
     1.0000   1.0000   1.0000   1.0000   1.0000   1.0000   1.0000   1.0000
     1.0000   1.0000   1.0000   1.0000   1.0000   1.0000   0.0000   0.0000
     0.0000   0.0000

          k = 0.2638-0.1632 0.2720 (  1639 PWs)   bands (ev):

   -17.1537 -17.1287 -17.0881 -17.0557 -17.0484 -16.9291 -16.9266 -16.9130
   -16.8702 -16.8500  -3.5717   1.6272   5.8340   6.7107   8.5430  11.1941
    11.5854  13.7987

     occupation numbers 
     1.0000   1.0000   1.0000   1.0000   1.0000   1.0000   1.0000   1.0000
     1.0000   1.0000   1.0000   1.0000   1.0000   1.0008   0.0000   0.0000
     0.0000   0.0000

          k = 0.3209-0.1088 0.2176 (  1633 PWs)   bands (ev):

   -17.1549 -17.1294 -17.0883 -17.0550 -17.0384 -16.9486 -16.9200 -16.9102
   -16.8711 -16.8475  -3.5964   1.9387   5.2751   6.4106   9.2571  10.9730
    12.1090  12.9507

     occupation numbers 
     1.0000   1.0000   1.0000   1.0000   1.0000   1.0000   1.0000   1.0000
     1.0000   1.0000   1.0000   1.0000   1.0000   1.0000   0.0000   0.0000
     0.0000   0.0000

          k = 0.3780-0.0544 0.1632 (  1639 PWs)   bands (ev):

   -17.1531 -17.1321 -17.0932 -17.0484 -17.0219 -16.9710 -16.9216 -16.9039
   -16.8685 -16.8487  -3.4886   2.0343   4.9237   5.8863   9.4544  10.6239
    12.2698  13.2486

     occupation numbers 
     1.0000   1.0000   1.0000   1.0000   1.0000   1.0000   1.0000   1.0000
     1.0000   1.0000   1.0000   1.0000   1.0000   1.0000   0.0000   0.0000
     0.0000   0.0000

          k = 0.4351 0.0000 0.1088 (  1646 PWs)   bands (ev):

   -17.1474 -17.1360 -17.0998 -17.0383 -17.0049 -16.9911 -16.9300 -16.8959
   -16.8638 -16.8539  -3.2486   1.7376   4.9576   5.4054   8.9025   9.9958
    13.0184  14.1350

     occupation numbers 
     1.0000   1.0000   1.0000   1.0000   1.0000   1.0000   1.0000   1.0000
     1.0000   1.0000   1.0000   1.0000   1.0000   1.0000   0.0000   0.0000
     0.0000   0.0000

          k = 0.5494 0.1088-0.0000 (  1652 PWs)   bands (ev):

   -17.1470 -17.1386 -17.0952 -17.0232 -17.0145 -16.9730 -16.9528 -16.9046
   -16.8577 -16.8505  -2.4040   0.4841   4.6485   4.9426   8.6850   9.3124
    13.7921  15.3714

     occupation numbers 
     1.0000   1.0000   1.0000   1.0000   1.0000   1.0000   1.0000   1.0000
     1.0000   1.0000   1.0000   1.0000   1.0000   1.0000   0.0000   0.0000
     0.0000   0.0000

          k =-0.1360-0.5439 0.6527 (  1651 PWs)   bands (ev):

   -17.1549 -17.1402 -17.0790 -17.0283 -17.0026 -16.9667 -16.9650 -16.9223
   -16.8549 -16.8422  -1.8598  -0.1665   4.1573   4.8136   8.9704   9.9103
    13.4677  15.6259

     occupation numbers 
     1.0000   1.0000   1.0000   1.0000   1.0000   1.0000   1.0000   1.0000
     1.0000   1.0000   1.0000   1.0000   1.0000   1.0000   0.0000   0.0000
     0.0000   0.0000

          k =-0.0789-0.4895 0.5983 (  1644 PWs)   bands (ev):

   -17.1619 -17.1415 -17.0656 -17.0226 -16.9936 -16.9767 -16.9704 -16.9344
   -16.8533 -16.8354  -1.4796  -0.5619   3.6859   4.8791   9.1087  11.1828
    13.1717  15.1827

     occupation numbers 
     1.0000   1.0000   1.0000   1.0000   1.0000   1.0000   1.0000   1.0000
     1.0000   1.0000   1.0000   1.0000   1.0000   1.0000   0.0000   0.0000
     0.0000   0.0000

          k =-0.0218-0.4351 0.5439 (  1650 PWs)   bands (ev):

   -17.1657 -17.1419 -17.0616 -17.0099 -17.0026 -16.9823 -16.9707 -16.9358
   -16.8534 -16.8323  -1.7783  -0.2346   3.4640   5.0974   9.3423  12.5801
    13.0429  13.9442

     occupation numbers 
     1.0000   1.0000   1.0000   1.0000   1.0000   1.0000   1.0000   1.0000
     1.0000   1.0000   1.0000   1.0000   1.0000   1.0000   0.0000   0.0000
     0.0000   0.0000

          k = 0.0354-0.3807 0.4895 (  1650 PWs)   bands (ev):

   -17.1654 -17.1408 -17.0636 -17.0249 -17.0114 -16.9742 -16.9545 -16.9336
   -16.8552 -16.8338  -2.2886   0.2663   3.6326   5.4379   9.6330  12.4025
    12.7997  14.0293

     occupation numbers 
     1.0000   1.0000   1.0000   1.0000   1.0000   1.0000   1.0000   1.0000
     1.0000   1.0000   1.0000   1.0000   1.0000   1.0000   0.0000   0.0000
     0.0000   0.0000

          k = 0.0925-0.3264 0.4351 (  1648 PWs)   bands (ev):

   -17.1616 -17.1380 -17.0716 -17.0402 -17.0256 -16.9588 -16.9352 -16.9300
   -16.8590 -16.8393  -2.7595   0.6555   4.2329   5.8466   9.7530  11.3466
    12.5203  13.6133

     occupation numbers 
     1.0000   1.0000   1.0000   1.0000   1.0000   1.0000   1.0000   1.0000
     1.0000   1.0000   1.0000   1.0000   1.0000   1.0000   0.0000   0.0000
     0.0000   0.0000

          k = 0.1496-0.2720 0.3807 (  1648 PWs)   bands (ev):

   -17.1563 -17.1339 -17.0832 -17.0474 -17.0393 -16.9462 -16.9258 -16.9184
   -16.8640 -16.8465  -3.1430   0.9672   5.1459   6.2017   9.2489  10.9062
    12.1913  13.4971

     occupation numbers 
     1.0000   1.0000   1.0000   1.0000   1.0000   1.0000   1.0000   1.0000
     1.0000   1.0000   1.0000   1.0000   1.0000   1.0000   0.0000   0.0000
     0.0000   0.0000

          k = 0.2584-0.2720 0.3807 (  1641 PWs)   bands (ev):

   -17.1549 -17.1324 -17.0851 -17.0508 -17.0454 -16.9350 -16.9261 -16.9165
   -16.8664 -16.8483  -3.0261   0.5448   5.8434   6.2684   8.4885  10.9928
    11.8869  14.4902

     occupation numbers 
     1.0000   1.0000   1.0000   1.0000   1.0000   1.0000   1.0000   1.0000
     1.0000   1.0000   1.0000   1.0000   1.0000   1.0000   0.0000   0.0000
     0.0000   0.0000

          k = 0.3155-0.2176 0.3264 (  1646 PWs)   bands (ev):

   -17.1559 -17.1306 -17.0846 -17.0526 -17.0454 -16.9290 -16.9281 -16.9200
   -16.8682 -16.8470  -3.1416   0.7601   5.7111   6.4747   8.4469  11.3095
    11.5538  14.6775

     occupation numbers 
     1.0000   1.0000   1.0000   1.0000   1.0000   1.0000   1.0000   1.0000
     1.0000   1.0000   1.0000   1.0000   1.0000   1.0000   0.0000   0.0000
     0.0000   0.0000

          k = 0.3726-0.1632 0.2720 (  1642 PWs)   bands (ev):

   -17.1586 -17.1321 -17.0815 -17.0492 -17.0365 -16.9478 -16.9236 -16.9218
   -16.8670 -16.8430  -3.1507   1.0117   5.0538   6.2160   9.1267  11.1320
    12.1508  13.8691

     occupation numbers 
     1.0000   1.0000   1.0000   1.0000   1.0000   1.0000   1.0000   1.0000
     1.0000   1.0000   1.0000   1.0000   1.0000   1.0000   0.0000   0.0000
     0.0000   0.0000

          k = 0.4297-0.1088 0.2176 (  1635 PWs)   bands (ev):

   -17.1590 -17.1353 -17.0822 -17.0414 -17.0187 -16.9728 -16.9291 -16.9165
   -16.8636 -16.8415  -3.0447   1.1682   4.5200   5.7256   9.4661  11.2040
    12.3740  13.4537

     occupation numbers 
     1.0000   1.0000   1.0000   1.0000   1.0000   1.0000   1.0000   1.0000
     1.0000   1.0000   1.0000   1.0000   1.0000   1.0000   0.0000   0.0000
     0.0000   0.0000

          k = 0.4868-0.0544 0.1632 (  1646 PWs)   bands (ev):

   -17.1554 -17.1389 -17.0857 -17.0306 -17.0019 -16.9936 -16.9383 -16.9109
   -16.8592 -16.8443  -2.8191   1.0305   4.3966   5.2547   9.1629  10.4577
    12.8095  14.6479

     occupation numbers 
     1.0000   1.0000   1.0000   1.0000   1.0000   1.0000   1.0000   1.0000
     1.0000   1.0000   1.0000   1.0000   1.0000   1.0000   0.0000   0.0000
     0.0000   0.0000

          k = 0.5439 0.0000 0.1088 (  1649 PWs)   bands (ev):

   -17.1486 -17.1425 -17.0890 -17.0236 -17.0161 -16.9761 -16.9493 -16.9078
   -16.8547 -16.8497  -2.4748   0.5769   4.6304   4.9000   8.7100   9.4385
    14.1340  15.3599

     occupation numbers 
     1.0000   1.0000   1.0000   1.0000   1.0000   1.0000   1.0000   1.0000
     1.0000   1.0000   1.0000   1.0000   1.0000   1.0000   0.0000   0.0000
     0.0000   0.0000

          k =-0.0843-0.5983 0.7071 (  1644 PWs)   bands (ev):

   -17.1518 -17.1420 -17.0743 -17.0483 -16.9920 -16.9748 -16.9483 -16.9263
   -16.8530 -16.8446  -1.4788  -0.6254   4.4843   4.6425   8.7590   8.9078
    14.8730  16.3946

     occupation numbers 
     1.0000   1.0000   1.0000   1.0000   1.0000   1.0000   1.0000   1.0000
     1.0000   1.0000   1.0000   1.0000   1.0000   1.0000   0.0000   0.0000
     0.0000   0.0000

          k =-0.0272-0.5439 0.6527 (  1649 PWs)   bands (ev):

   -17.1586 -17.1430 -17.0608 -17.0446 -16.9893 -16.9789 -16.9523 -16.9373
   -16.8519 -16.8385  -1.2291  -0.8497   4.0375   4.6478   8.9392   9.8780
    14.5291  15.6577

     occupation numbers 
     1.0000   1.0000   1.0000   1.0000   1.0000   1.0000   1.0000   1.0000
     1.0000   1.0000   1.0000   1.0000   1.0000   1.0000   0.0000   0.0000
     0.0000   0.0000

          k = 0.0299-0.4895 0.5983 (  1644 PWs)   bands (ev):

   -17.1639 -17.1434 -17.0610 -17.0204 -17.0046 -16.9768 -16.9653 -16.9343
   -16.8521 -16.8341  -1.7185  -0.3087   3.6817   4.8607   9.1706  11.2945
    14.1432  14.1822

     occupation numbers 
     1.0000   1.0000   1.0000   1.0000   1.0000   1.0000   1.0000   1.0000
     1.0000   1.0000   1.0000   1.0000   1.0000   1.0000   0.0000   0.0000
     0.0000   0.0000

          k = 0.0870-0.4351 0.5439 (  1644 PWs)   bands (ev):

   -17.1654 -17.1426 -17.0629 -17.0219 -17.0054 -16.9871 -16.9522 -16.9319
   -16.8539 -16.8336  -2.1549   0.0899   3.7171   5.2073   9.4874  12.4857
    13.0635  13.6778

     occupation numbers 
     1.0000   1.0000   1.0000   1.0000   1.0000   1.0000   1.0000   1.0000
     1.0000   1.0000   1.0000   1.0000   1.0000   1.0000   0.0000   0.0000
     0.0000   0.0000

          k = 0.1441-0.3807 0.4895 (  1648 PWs)   bands (ev):

   -17.1629 -17.1403 -17.0677 -17.0374 -17.0230 -16.9641 -16.9388 -16.9296
   -16.8571 -16.8375  -2.5224   0.2899   4.2155   5.6427   9.6771  11.4188
    12.8776  14.2709

     occupation numbers 
     1.0000   1.0000   1.0000   1.0000   1.0000   1.0000   1.0000   1.0000
     1.0000   1.0000   1.0000   1.0000   1.0000   1.0000   0.0000   0.0000
     0.0000   0.0000

          k = 0.2013-0.3264 0.4351 (  1644 PWs)   bands (ev):

   -17.1581 -17.1366 -17.0773 -17.0464 -17.0374 -16.9458 -16.9301 -16.9225
   -16.8618 -16.8439  -2.8158   0.4018   5.0286   6.0617   9.1954  11.0294
    12.1763  14.4112

     occupation numbers 
     1.0000   1.0000   1.0000   1.0000   1.0000   1.0000   1.0000   1.0000
     1.0000   1.0000   1.0000   1.0000   1.0000   1.0000   0.0000   0.0000
     0.0000   0.0000

          k =-0.3617 0.3807-0.2720 (  1642 PWs)   bands (ev):

   -17.1559 -17.1336 -17.0814 -17.0536 -17.0431 -16.9330 -16.9292 -16.9180
   -16.8660 -16.8468  -2.9077   0.3464   5.6943   6.3202   8.4796  11.1136
    11.7861  14.8374

     occupation numbers 
     1.0000   1.0000   1.0000   1.0000   1.0000   1.0000   1.0000   1.0000
     1.0000   1.0000   1.0000   1.0000   1.0000   1.0000   0.0000   0.0000
     0.0000   0.0000

          k =-0.3046 0.4351-0.3264 (  1643 PWs)   bands (ev):

   -17.1570 -17.1315 -17.0825 -17.0522 -17.0437 -16.9312 -16.9268 -16.9226
   -16.8677 -16.8455  -2.8987   0.3427   5.6962   6.3146   8.4305  11.3012
    11.5720  14.9434

     occupation numbers 
     1.0000   1.0000   1.0000   1.0000   1.0000   1.0000   1.0000   1.0000
     1.0000   1.0000   1.0000   1.0000   1.0000   1.0000   0.0000   0.0000
     0.0000   0.0000

          k =-0.2475 0.4895-0.3807 (  1638 PWs)   bands (ev):

   -17.1604 -17.1335 -17.0775 -17.0440 -17.0380 -16.9430 -16.9323 -16.9253
   -16.8649 -16.8407  -2.8108   0.4232   4.9465   6.1119   9.0509  11.1421
    12.1390  14.8517

     occupation numbers 
     1.0000   1.0000   1.0000   1.0000   1.0000   1.0000   1.0000   1.0000
     1.0000   1.0000   1.0000   1.0000   1.0000   1.0000   0.0000   0.0000
     0.0000   0.0000

          k =-0.1904 0.5439-0.4351 (  1637 PWs)   bands (ev):

   -17.1627 -17.1374 -17.0738 -17.0342 -17.0208 -16.9688 -16.9384 -16.9251
   -16.8604 -16.8371  -2.6388   0.4991   4.2556   5.6686   9.4648  11.2998
    13.0671  13.6499

     occupation numbers 
     1.0000   1.0000   1.0000   1.0000   1.0000   1.0000   1.0000   1.0000
     1.0000   1.0000   1.0000   1.0000   1.0000   1.0000   0.0000   0.0000
     0.0000   0.0000

          k =-0.1333 0.5983-0.4895 (  1644 PWs)   bands (ev):

   -17.1613 -17.1412 -17.0729 -17.0228 -17.0000 -16.9940 -16.9479 -16.9240
   -16.8559 -16.8374  -2.3755   0.3967   3.9399   5.2079   9.2671  11.4723
    12.5561  14.6958

     occupation numbers 
     1.0000   1.0000   1.0000   1.0000   1.0000   1.0000   1.0000   1.0000
     1.0000   1.0000   1.0000   1.0000   1.0000   1.0000   0.0000   0.0000
     0.0000   0.0000

          k =-0.0761 0.6527-0.5439 (  1652 PWs)   bands (ev):

   -17.1560 -17.1443 -17.0729 -17.0270 -17.0077 -16.9725 -16.9585 -16.9238
   -16.8520 -16.8416  -2.0157   0.0156   4.0982   4.8333   8.9733  10.0720
    13.8781  15.6899

     occupation numbers 
     1.0000   1.0000   1.0000   1.0000   1.0000   1.0000   1.0000   1.0000
     1.0000   1.0000   1.0000   1.0000   1.0000   1.0000   0.0000   0.0000
     0.0000   0.0000

          k =-0.0190 0.7071-0.5983 (  1652 PWs)   bands (ev):

   -17.1487 -17.1468 -17.0716 -17.0488 -16.9949 -16.9721 -16.9496 -16.9265
   -16.8490 -16.8475  -1.5619  -0.5343   4.5087   4.5985   8.7328   8.9808
    15.3226  16.0332

     occupation numbers 
     1.0000   1.0000   1.0000   1.0000   1.0000   1.0000   1.0000   1.0000
     1.0000   1.0000   1.0000   1.0000   1.0000   1.0000   0.0000   0.0000
     0.0000   0.0000

          k =-0.6473 0.1088-0.0000 (  1658 PWs)   bands (ev):

   -17.1542 -17.1429 -17.0692 -17.0491 -16.9980 -16.9689 -16.9515 -16.9266
   -16.8524 -16.8430  -1.6439  -0.4429   4.5389   4.5413   8.7153   9.0554
    15.6812  15.9228

     occupation numbers 
     1.0000   1.0000   1.0000   1.0000   1.0000   1.0000   1.0000   1.0000
     1.0000   1.0000   1.0000   1.0000   1.0000   1.0000   0.0000   0.0000
     0.0000   0.0000

          k =-0.5902 0.1632-0.0544 (  1649 PWs)   bands (ev):

   -17.1597 -17.1431 -17.0698 -17.0263 -17.0120 -16.9731 -16.9563 -16.9244
   -16.8530 -16.8389  -2.0868   0.0972   4.1378   4.7491   9.0457  10.1140
    14.4064  15.1521

     occupation numbers 
     1.0000   1.0000   1.0000   1.0000   1.0000   1.0000   1.0000   1.0000
     1.0000   1.0000   1.0000   1.0000   1.0000   1.0000   0.0000   0.0000
     0.0000   0.0000

          k =-0.5330 0.2176-0.1088 (  1637 PWs)   bands (ev):

   -17.1629 -17.1423 -17.0690 -17.0270 -17.0010 -16.9947 -16.9443 -16.9248
   -16.8550 -16.8365  -2.4333   0.4533   4.0027   5.1013   9.3966  11.5317
    12.9158  14.2547

     occupation numbers 
     1.0000   1.0000   1.0000   1.0000   1.0000   1.0000   1.0000   1.0000
     1.0000   1.0000   1.0000   1.0000   1.0000   1.0000   0.0000   0.0000
     0.0000   0.0000

          k =-0.4759 0.2720-0.1632 (  1639 PWs)   bands (ev):

   -17.1623 -17.1405 -17.0695 -17.0404 -17.0194 -16.9711 -16.9338 -16.9257
   -16.8580 -16.8381  -2.6818   0.5284   4.3275   5.5651   9.6557  11.4647
    12.9724  13.5722

     occupation numbers 
     1.0000   1.0000   1.0000   1.0000   1.0000   1.0000   1.0000   1.0000
     1.0000   1.0000   1.0000   1.0000   1.0000   1.0000   0.0000   0.0000
     0.0000   0.0000

          k =-0.4188 0.3264-0.2176 (  1643 PWs)   bands (ev):

   -17.1587 -17.1375 -17.0743 -17.0497 -17.0356 -16.9476 -16.9297 -16.9222
   -16.8618 -16.8429  -2.8373   0.4362   4.9922   6.0513   9.2254  11.0872
    12.1852  14.7888

     occupation numbers 
     1.0000   1.0000   1.0000   1.0000   1.0000   1.0000   1.0000   1.0000
     1.0000   1.0000   1.0000   1.0000   1.0000   1.0000   0.0000   0.0000
     0.0000   0.0000

          k =-0.3100 0.3264-0.2176 (  1641 PWs)   bands (ev):

   -17.1558 -17.1336 -17.0795 -17.0573 -17.0438 -16.9314 -16.9295 -16.9168
   -16.8669 -16.8468  -3.1660   0.7926   5.6456   6.4698   8.5571  11.2445
    11.6944  14.8392

     occupation numbers 
     1.0000   1.0000   1.0000   1.0000   1.0000   1.0000   1.0000   1.0000
     1.0000   1.0000   1.0000   1.0000   1.0000   1.0000   0.0000   0.0000
     0.0000   0.0000

          k =-0.2529 0.3807-0.2720 (  1641 PWs)   bands (ev):

   -17.1568 -17.1313 -17.0825 -17.0537 -17.0434 -16.9354 -16.9234 -16.9202
   -16.8686 -16.8456  -3.0363   0.5736   5.7850   6.2451   8.5009  11.2486
    11.6633  14.8175

     occupation numbers 
     1.0000   1.0000   1.0000   1.0000   1.0000   1.0000   1.0000   1.0000
     1.0000   1.0000   1.0000   1.0000   1.0000   1.0000   0.0000   0.0000
     0.0000   0.0000

          k =-0.1958 0.4351-0.3264 (  1639 PWs)   bands (ev):

   -17.1604 -17.1335 -17.0775 -17.0439 -17.0382 -16.9427 -16.9326 -16.9253
   -16.8650 -16.8407  -2.8103   0.4227   4.9455   6.1129   9.0506  11.1434
    12.1379  14.8429

     occupation numbers 
     1.0000   1.0000   1.0000   1.0000   1.0000   1.0000   1.0000   1.0000
     1.0000   1.0000   1.0000   1.0000   1.0000   1.0000   0.0000   0.0000
     0.0000   0.0000

          k =-0.1387 0.4895-0.3807 (  1643 PWs)   bands (ev):

   -17.1637 -17.1382 -17.0700 -17.0298 -17.0261 -16.9610 -16.9459 -16.9287
   -16.8591 -16.8359  -2.4999   0.2933   4.1288   5.7306   9.5149  11.2335
    13.1845  14.4646

     occupation numbers 
     1.0000   1.0000   1.0000   1.0000   1.0000   1.0000   1.0000   1.0000
     1.0000   1.0000   1.0000   1.0000   1.0000   1.0000   0.0000   0.0000
     0.0000   0.0000

          k =-0.0816 0.5439-0.4351 (  1633 PWs)   bands (ev):

   -17.1642 -17.1424 -17.0655 -17.0165 -17.0042 -16.9874 -16.9572 -16.9312
   -16.8540 -16.8341  -2.1152   0.0632   3.6554   5.2872   9.3917  12.1372
    12.9579  14.3433

     occupation numbers 
     1.0000   1.0000   1.0000   1.0000   1.0000   1.0000   1.0000   1.0000
     1.0000   1.0000   1.0000   1.0000   1.0000   1.0000   0.0000   0.0000
     0.0000   0.0000

          k =-0.0245 0.5983-0.4895 (  1645 PWs)   bands (ev):

   -17.1610 -17.1453 -17.0626 -17.0201 -16.9999 -16.9780 -16.9679 -16.9341
   -16.8506 -16.8363  -1.6633  -0.3646   3.6562   4.9081   9.1227  11.2765
    13.5701  14.8355

     occupation numbers 
     1.0000   1.0000   1.0000   1.0000   1.0000   1.0000   1.0000   1.0000
     1.0000   1.0000   1.0000   1.0000   1.0000   1.0000   0.0000   0.0000
     0.0000   0.0000

          k = 0.0326 0.6527-0.5439 (  1653 PWs)   bands (ev):

   -17.1544 -17.1472 -17.0606 -17.0448 -16.9869 -16.9815 -16.9520 -16.9374
   -16.8485 -16.8420  -1.1869  -0.8931   4.0432   4.6486   8.9375   9.8703
    14.9583  15.1031

     occupation numbers 
     1.0000   1.0000   1.0000   1.0000   1.0000   1.0000   1.0000   1.0000
     1.0000   1.0000   1.0000   1.0000   1.0000   1.0000   0.0000   0.0000
     0.0000   0.0000

          k =-0.5385 0.1088 0.0000 (  1653 PWs)   bands (ev):

   -17.1545 -17.1409 -17.0842 -17.0209 -17.0208 -16.9787 -16.9465 -16.9100
   -16.8562 -16.8450  -2.5443   0.6682   4.6407   4.8231   8.7505   9.5601
    14.6511  15.3104

     occupation numbers 
     1.0000   1.0000   1.0000   1.0000   1.0000   1.0000   1.0000   1.0000
     1.0000   1.0000   1.0000   1.0000   1.0000   1.0000   0.0000   0.0000
     0.0000   0.0000

          k =-0.4814 0.1632-0.0544 (  1641 PWs)   bands (ev):

   -17.1585 -17.1403 -17.0804 -17.0341 -16.9999 -16.9974 -16.9351 -16.9131
   -16.8583 -16.8421  -2.8789   1.1031   4.4365   5.1449   9.3015  10.5462
    13.1536  14.4384

     occupation numbers 
     1.0000   1.0000   1.0000   1.0000   1.0000   1.0000   1.0000   1.0000
     1.0000   1.0000   1.0000   1.0000   1.0000   1.0000   0.0000   0.0000
     0.0000   0.0000

          k =-0.4243 0.2176-0.1088 (  1639 PWs)   bands (ev):

   -17.1598 -17.1387 -17.0761 -17.0460 -17.0195 -16.9736 -16.9256 -16.9185
   -16.8612 -16.8413  -3.0937   1.2175   4.5526   5.6329   9.6861  11.3300
    12.4361  13.3759

     occupation numbers 
     1.0000   1.0000   1.0000   1.0000   1.0000   1.0000   1.0000   1.0000
     1.0000   1.0000   1.0000   1.0000   1.0000   1.0000   0.0000   0.0000
     0.0000   0.0000

          k =-0.3672 0.2720-0.1632 (  1636 PWs)   bands (ev):

   -17.1580 -17.1365 -17.0751 -17.0545 -17.0362 -16.9496 -16.9248 -16.9186
   -16.8641 -16.8438  -3.1879   1.0487   5.0421   6.1725   9.3377  11.1119
    12.1981  13.9812

     occupation numbers 
     1.0000   1.0000   1.0000   1.0000   1.0000   1.0000   1.0000   1.0000
     1.0000   1.0000   1.0000   1.0000   1.0000   1.0000   0.0000   0.0000
     0.0000   0.0000

          k =-0.2584 0.2720-0.1632 (  1626 PWs)   bands (ev):

   -17.1546 -17.1318 -17.0804 -17.0611 -17.0481 -16.9307 -16.9266 -16.9121
   -16.8697 -16.8485  -3.5992   1.6749   5.7077   6.7045   8.7141  11.3433
    11.5695  14.0622

     occupation numbers 
     1.0000   1.0000   1.0000   1.0000   1.0000   1.0000   1.0000   1.0000
     1.0000   1.0000   1.0000   1.0000   1.0000   1.0007   0.0000   0.0000
     0.0000   0.0000

          k =-0.2013 0.3264-0.2176 (  1633 PWs)   bands (ev):

   -17.1554 -17.1301 -17.0846 -17.0570 -17.0452 -16.9377 -16.9183 -16.9162
   -16.8707 -16.8474  -3.4353   1.3310   5.9690   6.2757   8.6531  11.1772
    11.7469  14.1342

     occupation numbers 
     1.0000   1.0000   1.0000   1.0000   1.0000   1.0000   1.0000   1.0000
     1.0000   1.0000   1.0000   1.0000   1.0000   1.0000   0.0000   0.0000
     0.0000   0.0000

          k =-0.1441 0.3807-0.2720 (  1638 PWs)   bands (ev):

   -17.1585 -17.1320 -17.0814 -17.0492 -17.0366 -16.9475 -16.9235 -16.9221
   -16.8671 -16.8431  -3.1496   1.0108   5.0511   6.2185   9.1261  11.1344
    12.1480  13.8594

     occupation numbers 
     1.0000   1.0000   1.0000   1.0000   1.0000   1.0000   1.0000   1.0000
     1.0000   1.0000   1.0000   1.0000   1.0000   1.0000   0.0000   0.0000
     0.0000   0.0000

          k =-0.0870 0.4351-0.3264 (  1646 PWs)   bands (ev):

   -17.1619 -17.1374 -17.0719 -17.0384 -17.0237 -16.9595 -16.9392 -16.9290
   -16.8600 -16.8382  -2.7552   0.6840   4.1525   5.9032   9.6113  11.1969
    12.9954  13.7320

     occupation numbers 
     1.0000   1.0000   1.0000   1.0000   1.0000   1.0000   1.0000   1.0000
     1.0000   1.0000   1.0000   1.0000   1.0000   1.0000   0.0000   0.0000
     0.0000   0.0000

          k =-0.0299 0.4895-0.3807 (  1638 PWs)   bands (ev):

   -17.1635 -17.1423 -17.0644 -17.0229 -17.0080 -16.9758 -16.9579 -16.9331
   -16.8541 -16.8351  -2.2746   0.2682   3.5896   5.4833   9.5748  12.0058
    13.3422  14.0516

     occupation numbers 
     1.0000   1.0000   1.0000   1.0000   1.0000   1.0000   1.0000   1.0000
     1.0000   1.0000   1.0000   1.0000   1.0000   1.0000   0.0000   0.0000
     0.0000   0.0000

          k = 0.0272 0.5439-0.4351 (  1647 PWs)   bands (ev):

   -17.1622 -17.1454 -17.0613 -17.0120 -16.9950 -16.9878 -16.9706 -16.9359
   -16.8505 -16.8353  -1.7646  -0.2480   3.4637   5.1065   9.3323  12.6359
    13.2824  13.5321

     occupation numbers 
     1.0000   1.0000   1.0000   1.0000   1.0000   1.0000   1.0000   1.0000
     1.0000   1.0000   1.0000   1.0000   1.0000   1.0000   0.0000   0.0000
     0.0000   0.0000

          k = 0.0843 0.5983-0.4895 (  1644 PWs)   bands (ev):

   -17.1575 -17.1469 -17.0634 -17.0239 -16.9951 -16.9784 -16.9669 -16.9350
   -16.8490 -16.8393  -1.5212  -0.5209   3.7167   4.8418   9.1437  11.1884
    13.6299  14.4835

     occupation numbers 
     1.0000   1.0000   1.0000   1.0000   1.0000   1.0000   1.0000   1.0000
     1.0000   1.0000   1.0000   1.0000   1.0000   1.0000   0.0000   0.0000
     0.0000   0.0000

          k =-0.6010-0.0544 0.1632 (  1649 PWs)   bands (ev):

   -17.1503 -17.1476 -17.0749 -17.0292 -17.0050 -16.9703 -16.9599 -16.9235
   -16.8491 -16.8463  -1.9329  -0.0836   4.2052   4.7321   9.0374   9.9387
    13.8517  15.2214

     occupation numbers 
     1.0000   1.0000   1.0000   1.0000   1.0000   1.0000   1.0000   1.0000
     1.0000   1.0000   1.0000   1.0000   1.0000   1.0000   0.0000   0.0000
     0.0000   0.0000

          k =-0.4297 0.1088-0.0000 (  1649 PWs)   bands (ev):

   -17.1534 -17.1365 -17.0925 -17.0419 -17.0062 -16.9914 -16.9262 -16.9007
   -16.8638 -16.8488  -3.3043   1.8145   4.9356   5.3396   9.0006  10.1798
    13.3887  14.1544

     occupation numbers 
     1.0000   1.0000   1.0000   1.0000   1.0000   1.0000   1.0000   1.0000
     1.0000   1.0000   1.0000   1.0000   1.0000   1.0000   0.0000   0.0000
     0.0000   0.0000

          k =-0.3726 0.1632-0.0544 (  1634 PWs)   bands (ev):

   -17.1558 -17.1352 -17.0854 -17.0526 -17.0243 -16.9705 -16.9172 -16.9087
   -16.8665 -16.8466  -3.5354   2.0910   4.9012   5.8278   9.6747  10.7784
    12.3539  13.2792

     occupation numbers 
     1.0000   1.0000   1.0000   1.0000   1.0000   1.0000   1.0000   1.0000
     1.0000   1.0000   1.0000   1.0000   1.0000   1.0000   0.0000   0.0000
     0.0000   0.0000

          k =-0.3155 0.2176-0.1088 (  1626 PWs)   bands (ev):

   -17.1558 -17.1336 -17.0798 -17.0596 -17.0404 -16.9487 -16.9186 -16.9117
   -16.8686 -16.8467  -3.6337   1.9864   5.2007   6.4001   9.5182  10.9837
    12.1559  13.0832

     occupation numbers 
     1.0000   1.0000   1.0000   1.0000   1.0000   1.0000   1.0000   1.0000
     1.0000   1.0000   1.0000   1.0000   1.0000   1.0000   0.0000   0.0000
     0.0000   0.0000

          k =-0.2067 0.2176-0.1088 (  1622 PWs)   bands (ev):

   -17.1520 -17.1283 -17.0839 -17.0651 -17.0554 -16.9297 -16.9204 -16.9052
   -16.8747 -16.8518  -4.0260   2.7922   5.8911   6.9992   8.9282  11.2752
    11.3350  12.8548

     occupation numbers 
     1.0000   1.0000   1.0000   1.0000   1.0000   1.0000   1.0000   1.0000
     1.0000   1.0000   1.0000   1.0000   1.0000   1.0342   0.0000   0.0000
     0.0000   0.0000

          k =-0.1496 0.2720-0.1632 (  1629 PWs)   bands (ev):

   -17.1526 -17.1276 -17.0881 -17.0619 -17.0497 -16.9372 -16.9122 -16.9109
   -16.8742 -16.8512  -3.8773   2.3845   6.2308   6.4138   8.8679  10.9901
    11.7119  13.1539

     occupation numbers 
     1.0000   1.0000   1.0000   1.0000   1.0000   1.0000   1.0000   1.0000
     1.0000   1.0000   1.0000   1.0000   1.0000   1.0000   0.0000   0.0000
     0.0000   0.0000

          k =-0.0925 0.3264-0.2176 (  1637 PWs)   bands (ev):

   -17.1549 -17.1293 -17.0881 -17.0550 -17.0386 -16.9483 -16.9199 -16.9105
   -16.8713 -16.8476  -3.5953   1.9381   5.2709   6.4138   9.2565  10.9718
    12.1062  12.9481

     occupation numbers 
     1.0000   1.0000   1.0000   1.0000   1.0000   1.0000   1.0000   1.0000
     1.0000   1.0000   1.0000   1.0000   1.0000   1.0000   0.0000   0.0000
     0.0000   0.0000

          k =-0.0354 0.3807-0.2720 (  1642 PWs)   bands (ev):

   -17.1576 -17.1348 -17.0797 -17.0468 -17.0254 -16.9593 -16.9269 -16.9237
   -16.8635 -16.8432  -3.1912   1.4313   4.3584   6.1592   9.7121  11.0672
    12.5152  12.9894

     occupation numbers 
     1.0000   1.0000   1.0000   1.0000   1.0000   1.0000   1.0000   1.0000
     1.0000   1.0000   1.0000   1.0000   1.0000   1.0000   0.0000   0.0000
     0.0000   0.0000

          k = 0.0218 0.4351-0.3264 (  1644 PWs)   bands (ev):

   -17.1593 -17.1405 -17.0701 -17.0363 -17.0123 -16.9696 -16.9423 -16.9319
   -16.8564 -16.8400  -2.6913   0.8135   3.7968   5.7675   9.7485  11.7047
    12.3943  13.7080

     occupation numbers 
     1.0000   1.0000   1.0000   1.0000   1.0000   1.0000   1.0000   1.0000
     1.0000   1.0000   1.0000   1.0000   1.0000   1.0000   0.0000   0.0000
     0.0000   0.0000

          k = 0.0789 0.4895-0.3807 (  1644 PWs)   bands (ev):

   -17.1591 -17.1441 -17.0655 -17.0245 -17.0033 -16.9768 -16.9582 -16.9343
   -16.8522 -16.8389  -2.1721   0.1659   3.6179   5.4024   9.5584  12.0558
    12.9676  14.0063

     occupation numbers 
     1.0000   1.0000   1.0000   1.0000   1.0000   1.0000   1.0000   1.0000
     1.0000   1.0000   1.0000   1.0000   1.0000   1.0000   0.0000   0.0000
     0.0000   0.0000

          k = 0.1360 0.5439-0.4351 (  1648 PWs)   bands (ev):

   -17.1564 -17.1457 -17.0677 -17.0191 -17.0020 -16.9810 -16.9606 -16.9322
   -16.8506 -16.8409  -1.9086  -0.1566   3.7409   5.1434   9.3967  11.9890
    12.9233  13.7605

     occupation numbers 
     1.0000   1.0000   1.0000   1.0000   1.0000   1.0000   1.0000   1.0000
     1.0000   1.0000   1.0000   1.0000   1.0000   1.0000   0.0000   0.0000
     0.0000   0.0000

          k =-0.5494-0.1088 0.2176 (  1652 PWs)   bands (ev):

   -17.1511 -17.1462 -17.0769 -17.0211 -17.0064 -16.9827 -16.9525 -16.9229
   -16.8511 -16.8460  -2.2185   0.2183   4.0758   5.0372   9.3222  11.1823
    12.5308  14.1341

     occupation numbers 
     1.0000   1.0000   1.0000   1.0000   1.0000   1.0000   1.0000   1.0000
     1.0000   1.0000   1.0000   1.0000   1.0000   1.0000   0.0000   0.0000
     0.0000   0.0000

          k =-0.4923-0.0544 0.1632 (  1648 PWs)   bands (ev):

   -17.1470 -17.1432 -17.0897 -17.0280 -17.0060 -16.9879 -16.9415 -16.9086
   -16.8551 -16.8516  -2.7509   0.9457   4.5220   5.1280   9.2555  10.2084
    12.7240  14.3047

     occupation numbers 
     1.0000   1.0000   1.0000   1.0000   1.0000   1.0000   1.0000   1.0000
     1.0000   1.0000   1.0000   1.0000   1.0000   1.0000   0.0000   0.0000
     0.0000   0.0000

          k =-0.3209 0.1088 0.0000 (  1651 PWs)   bands (ev):

   -17.1512 -17.1303 -17.0943 -17.0593 -17.0324 -16.9628 -16.9096 -16.8994
   -16.8737 -16.8526  -3.9073   2.9616   5.4134   6.0678   9.4341  10.4780
    12.4457  12.8661

     occupation numbers 
     1.0000   1.0000   1.0000   1.0000   1.0000   1.0000   1.0000   1.0000
     1.0000   1.0000   1.0000   1.0000   1.0000   1.0000   0.0000   0.0000
     0.0000   0.0000

          k =-0.2638 0.1632-0.0544 (  1628 PWs)   bands (ev):

   -17.1523 -17.1290 -17.0864 -17.0652 -17.0474 -16.9444 -16.9119 -16.9031
   -16.8755 -16.8513  -4.0363   3.0599   5.5091   6.6820   9.7287  10.5374
    11.9984  12.3974

     occupation numbers 
     1.0000   1.0000   1.0000   1.0000   1.0000   1.0000   1.0000   1.0000
     1.0000   1.0000   1.0000   1.0000   1.0000   1.0005   0.0000   0.0000
     0.0000   0.0000

          k =-0.1550 0.1632-0.0544 (  1645 PWs)   bands (ev):

   -17.1482 -17.1233 -17.0882 -17.0699 -17.0644 -16.9274 -16.9119 -16.8975
   -16.8818 -16.8570  -4.3694   4.0179   6.2162   7.3044   9.1252  10.8650
    10.9907  11.7643

     occupation numbers 
     1.0000   1.0000   1.0000   1.0000   1.0000   1.0000   1.0000   1.0000
     1.0000   1.0000   1.0000   1.0000   1.0000   1.0145   0.0000   0.0000
     0.0000   0.0000

          k =-0.0979 0.2176-0.1088 (  1630 PWs)   bands (ev):

   -17.1484 -17.1239 -17.0920 -17.0683 -17.0562 -16.9341 -16.9057 -16.9043
   -16.8790 -16.8566  -4.2552   3.5993   6.5360   6.6633   9.0964  10.5787
    11.4556  12.1998

     occupation numbers 
     1.0000   1.0000   1.0000   1.0000   1.0000   1.0000   1.0000   1.0000
     1.0000   1.0000   1.0000   1.0000   1.0000   1.0003   0.0000   0.0000
     0.0000   0.0000

          k =-0.0408 0.2720-0.1632 (  1640 PWs)   bands (ev):

   -17.1498 -17.1256 -17.0956 -17.0611 -17.0441 -16.9450 -16.9147 -16.8996
   -16.8771 -16.8537  -4.0022   3.0174   5.6226   6.6633   9.3843  10.4846
    11.8631  12.4713

     occupation numbers 
     1.0000   1.0000   1.0000   1.0000   1.0000   1.0000   1.0000   1.0000
     1.0000   1.0000   1.0000   1.0000   1.0000   1.0003   0.0000   0.0000
     0.0000   0.0000

          k = 0.0163 0.3264-0.2176 (  1645 PWs)   bands (ev):

   -17.1516 -17.1306 -17.0913 -17.0527 -17.0317 -16.9550 -16.9228 -16.9083
   -16.8694 -16.8501  -3.6198   2.2776   4.8035   6.4426   9.7148  10.5531
    12.2719  12.5298

     occupation numbers 
     1.0000   1.0000   1.0000   1.0000   1.0000   1.0000   1.0000   1.0000
     1.0000   1.0000   1.0000   1.0000   1.0000   1.0000   0.0000   0.0000
     0.0000   0.0000

          k = 0.0734 0.3807-0.2720 (  1654 PWs)   bands (ev):

   -17.1527 -17.1366 -17.0827 -17.0448 -17.0213 -16.9621 -16.9292 -16.9225
   -16.8614 -16.8474  -3.1312   1.4059   4.3321   6.0805   9.6821  10.9895
    12.2031  13.1059

     occupation numbers 
     1.0000   1.0000   1.0000   1.0000   1.0000   1.0000   1.0000   1.0000
     1.0000   1.0000   1.0000   1.0000   1.0000   1.0000   0.0000   0.0000
     0.0000   0.0000

          k = 0.1305 0.4351-0.3264 (  1649 PWs)   bands (ev):

   -17.1526 -17.1411 -17.0761 -17.0371 -17.0155 -16.9644 -16.9395 -16.9300
   -16.8560 -16.8461  -2.6029   0.5688   4.1508   5.7417   9.5387  11.1384
    12.5039  13.7881

     occupation numbers 
     1.0000   1.0000   1.0000   1.0000   1.0000   1.0000   1.0000   1.0000
     1.0000   1.0000   1.0000   1.0000   1.0000   1.0000   0.0000   0.0000
     0.0000   0.0000

          k = 0.1877 0.4895-0.3807 (  1647 PWs)   bands (ev):

   -17.1511 -17.1434 -17.0752 -17.0310 -17.0145 -16.9645 -16.9483 -16.9290
   -16.8537 -16.8467  -2.2508   0.0731   4.1726   5.5096   9.4449  11.1024
    12.7346  14.3596

     occupation numbers 
     1.0000   1.0000   1.0000   1.0000   1.0000   1.0000   1.0000   1.0000
     1.0000   1.0000   1.0000   1.0000   1.0000   1.0000   0.0000   0.0000
     0.0000   0.0000

          k =-0.4977-0.1632 0.2720 (  1651 PWs)   bands (ev):

   -17.1481 -17.1441 -17.0803 -17.0307 -17.0144 -16.9695 -16.9447 -16.9227
   -16.8541 -16.8492  -2.4179   0.2994   4.3367   5.4339   9.4384  11.0499
    12.7231  13.4475

     occupation numbers 
     1.0000   1.0000   1.0000   1.0000   1.0000   1.0000   1.0000   1.0000
     1.0000   1.0000   1.0000   1.0000   1.0000   1.0000   0.0000   0.0000
     0.0000   0.0000

          k =-0.4406-0.1088 0.2176 (  1658 PWs)   bands (ev):

   -17.1459 -17.1412 -17.0895 -17.0363 -17.0145 -16.9741 -16.9357 -16.9121
   -16.8578 -16.8526  -2.9174   1.0576   4.6027   5.5428   9.5192  10.7810
    12.2268  13.2546

     occupation numbers 
     1.0000   1.0000   1.0000   1.0000   1.0000   1.0000   1.0000   1.0000
     1.0000   1.0000   1.0000   1.0000   1.0000   1.0000   0.0000   0.0000
     0.0000   0.0000

          k =-0.3835-0.0544 0.1632 (  1654 PWs)   bands (ev):

   -17.1457 -17.1347 -17.0988 -17.0450 -17.0189 -16.9727 -16.9255 -16.9003
   -16.8653 -16.8553  -3.4361   1.9938   4.9681   5.8095   9.5781  10.2105
    12.1749  13.1994

     occupation numbers 
     1.0000   1.0000   1.0000   1.0000   1.0000   1.0000   1.0000   1.0000
     1.0000   1.0000   1.0000   1.0000   1.0000   1.0000   0.0000   0.0000
     0.0000   0.0000

          k =-0.2121 0.1088-0.0000 (  1640 PWs)   bands (ev):

   -17.1479 -17.1236 -17.0923 -17.0710 -17.0557 -16.9378 -16.9045 -16.8958
   -16.8837 -16.8571  -4.3414   4.0919   6.0448   6.9210   9.8291   9.9798
    11.6087  11.7727

     occupation numbers 
     1.0000   1.0000   1.0000   1.0000   1.0000   1.0000   1.0000   1.0000
     1.0000   1.0000   1.0000   1.0000   1.0000   1.0157   0.0000   0.0000
     0.0000   0.0000

          k =-0.1033 0.1088 0.0000 (  1653 PWs)   bands (ev):

   -17.1439 -17.1184 -17.0908 -17.0753 -17.0730 -16.9239 -16.9024 -16.8913
   -16.8895 -16.8636  -4.5992   5.1807   6.7479   7.5254   8.9994  10.2869
    10.6954  10.9283

     occupation numbers 
     1.0000   1.0000   1.0000   1.0000   1.0000   1.0000   1.0000   1.0000
     1.0000   1.0000   1.0000   1.0000   1.0014   0.5074   0.0000   0.0000
     0.0000   0.0000

          k =-0.0462 0.1632-0.0544 (  1648 PWs)   bands (ev):

   -17.1438 -17.1196 -17.0951 -17.0751 -17.0637 -16.9295 -16.8991 -16.8970
   -16.8853 -16.8631  -4.5272   4.8648   6.8633   6.9733   9.1997  10.0218
    11.0414  11.3091

     occupation numbers 
     1.0000   1.0000   1.0000   1.0000   1.0000   1.0000   1.0000   1.0000
     1.0000   1.0000   1.0000   1.0000   1.0078   1.0271   0.0000   0.0000
     0.0000   0.0000

          k = 0.0109 0.2176-0.1088 (  1650 PWs)   bands (ev):

   -17.1440 -17.1218 -17.1018 -17.0671 -17.0514 -16.9393 -16.9085 -16.8907
   -16.8837 -16.8609  -4.3134   4.0910   6.1434   6.8921   9.3766   9.8774
    11.5444  12.0209

     occupation numbers 
     1.0000   1.0000   1.0000   1.0000   1.0000   1.0000   1.0000   1.0000
     1.0000   1.0000   1.0000   1.0000   1.0000   1.0112   0.0000   0.0000
     0.0000   0.0000

          k = 0.0680 0.2720-0.1632 (  1650 PWs)   bands (ev):

   -17.1448 -17.1255 -17.1027 -17.0573 -17.0401 -16.9479 -16.9177 -16.8960
   -16.8763 -16.8577  -3.9651   3.0484   5.5442   6.6470   9.3499  10.1329
    12.0154  12.4550

     occupation numbers 
     1.0000   1.0000   1.0000   1.0000   1.0000   1.0000   1.0000   1.0000
     1.0000   1.0000   1.0000   1.0000   1.0000   1.0002   0.0000   0.0000
     0.0000   0.0000

          k = 0.1251 0.3264-0.2176 (  1651 PWs)   bands (ev):

   -17.1454 -17.1307 -17.0979 -17.0488 -17.0316 -16.9532 -16.9256 -16.9057
   -16.8689 -16.8549  -3.5008   1.9326   5.1825   6.3059   9.1251  10.6206
    12.0958  12.9379

     occupation numbers 
     1.0000   1.0000   1.0000   1.0000   1.0000   1.0000   1.0000   1.0000
     1.0000   1.0000   1.0000   1.0000   1.0000   1.0000   0.0000   0.0000
     0.0000   0.0000

          k = 0.1822 0.3807-0.2720 (  1650 PWs)   bands (ev):

   -17.1453 -17.1352 -17.0918 -17.0426 -17.0270 -16.9540 -16.9322 -16.9151
   -16.8635 -16.8533  -2.9717   0.9221   4.9874   6.0137   8.9414  10.8442
    12.0660  13.7198

     occupation numbers 
     1.0000   1.0000   1.0000   1.0000   1.0000   1.0000   1.0000   1.0000
     1.0000   1.0000   1.0000   1.0000   1.0000   1.0000   0.0000   0.0000
     0.0000   0.0000

          k = 0.2393 0.4351-0.3264 (  1647 PWs)   bands (ev):

   -17.1450 -17.1377 -17.0879 -17.0392 -17.0257 -16.9515 -16.9377 -16.9206
   -16.8607 -16.8526  -2.5374   0.2360   4.9072   5.8463   8.8440  10.8749
    12.0303  14.6128

     occupation numbers 
     1.0000   1.0000   1.0000   1.0000   1.0000   1.0000   1.0000   1.0000
     1.0000   1.0000   1.0000   1.0000   1.0000   1.0000   0.0000   0.0000
     0.0000   0.0000

          k =-0.4460-0.2176 0.3264 (  1651 PWs)   bands (ev):

   -17.1450 -17.1377 -17.0879 -17.0392 -17.0257 -16.9515 -16.9378 -16.9205
   -16.8607 -16.8526  -2.5380   0.2365   4.9091   5.8444   8.8439  10.8743
    12.0313  14.6214

     occupation numbers 
     1.0000   1.0000   1.0000   1.0000   1.0000   1.0000   1.0000   1.0000
     1.0000   1.0000   1.0000   1.0000   1.0000   1.0000   0.0000   0.0000
     0.0000   0.0000

          k =-0.3889-0.1632 0.2720 (  1650 PWs)   bands (ev):

   -17.1454 -17.1352 -17.0920 -17.0426 -17.0269 -16.9541 -16.9325 -16.9148
   -16.8635 -16.8533  -2.9729   0.9229   4.9924   6.0092   8.9412  10.8439
    12.0687  13.7287

     occupation numbers 
     1.0000   1.0000   1.0000   1.0000   1.0000   1.0000   1.0000   1.0000
     1.0000   1.0000   1.0000   1.0000   1.0000   1.0000   0.0000   0.0000
     0.0000   0.0000

          k =-0.3318-0.1088 0.2176 (  1650 PWs)   bands (ev):

   -17.1455 -17.1308 -17.0981 -17.0487 -17.0315 -16.9534 -16.9258 -16.9054
   -16.8687 -16.8549  -3.5020   1.9328   5.1891   6.3005   9.1244  10.6251
    12.0974  12.9394

     occupation numbers 
     1.0000   1.0000   1.0000   1.0000   1.0000   1.0000   1.0000   1.0000
     1.0000   1.0000   1.0000   1.0000   1.0000   1.0000   0.0000   0.0000
     0.0000   0.0000

          k =-0.2747-0.0544 0.1632 (  1651 PWs)   bands (ev):

   -17.1449 -17.1256 -17.1029 -17.0572 -17.0400 -16.9482 -16.9179 -16.8958
   -16.8761 -16.8576  -3.9661   3.0475   5.5514   6.6426   9.3480  10.1424
    12.0159  12.4505

     occupation numbers 
     1.0000   1.0000   1.0000   1.0000   1.0000   1.0000   1.0000   1.0000
     1.0000   1.0000   1.0000   1.0000   1.0000   1.0002   0.0000   0.0000
     0.0000   0.0000

          k = 0.0109 0.2176-0.0000 (  1637 PWs)   bands (ev):

   -17.1417 -17.1216 -17.1039 -17.0704 -17.0505 -16.9426 -16.8998 -16.8882
   -16.8865 -16.8646  -4.4013   4.5599   6.5225   6.5296   9.2648   9.8308
    11.6494  11.7639

     occupation numbers 
     1.0000   1.0000   1.0000   1.0000   1.0000   1.0000   1.0000   1.0000
     1.0000   1.0000   1.0000   1.0000   1.0000   1.0000   0.0000   0.0000
     0.0000   0.0000

          k = 0.0680 0.2720-0.0544 (  1646 PWs)   bands (ev):

   -17.1386 -17.1254 -17.1108 -17.0609 -17.0374 -16.9548 -16.9102 -16.8838
   -16.8789 -16.8666  -4.1357   3.6631   6.1483   6.2186   9.1830   9.8342
    12.1220  12.3876

     occupation numbers 
     1.0000   1.0000   1.0000   1.0000   1.0000   1.0000   1.0000   1.0000
     1.0000   1.0000   1.0000   1.0000   1.0000   1.0000   0.0000   0.0000
     0.0000   0.0000

          k = 0.1251 0.3264-0.1088 (  1653 PWs)   bands (ev):

   -17.1379 -17.1297 -17.1108 -17.0504 -17.0273 -16.9632 -16.9209 -16.8890
   -16.8717 -16.8635  -3.7405   2.5682   5.7262   5.9067   9.2606  10.0323
    12.3249  12.5772

     occupation numbers 
     1.0000   1.0000   1.0000   1.0000   1.0000   1.0000   1.0000   1.0000
     1.0000   1.0000   1.0000   1.0000   1.0000   1.0000   0.0000   0.0000
     0.0000   0.0000

          k = 0.1822 0.3807-0.1632 (  1656 PWs)   bands (ev):

   -17.1417 -17.1324 -17.1037 -17.0408 -17.0229 -16.9653 -16.9308 -16.8996
   -16.8669 -16.8573  -3.2421   1.4897   5.2650   5.7503   9.0814  10.5792
    12.5127  12.6148

     occupation numbers 
     1.0000   1.0000   1.0000   1.0000   1.0000   1.0000   1.0000   1.0000
     1.0000   1.0000   1.0000   1.0000   1.0000   1.0000   0.0000   0.0000
     0.0000   0.0000

          k = 0.2393 0.4351-0.2176 (  1655 PWs)   bands (ev):

   -17.1466 -17.1336 -17.0945 -17.0334 -17.0239 -16.9609 -16.9395 -16.9111
   -16.8639 -16.8515  -2.7181   0.5840   4.8881   5.7220   8.9242  10.8967
    12.3765  13.3672

     occupation numbers 
     1.0000   1.0000   1.0000   1.0000   1.0000   1.0000   1.0000   1.0000
     1.0000   1.0000   1.0000   1.0000   1.0000   1.0000   0.0000   0.0000
     0.0000   0.0000

          k =-0.4460-0.2176 0.4351 (  1648 PWs)   bands (ev):

   -17.1506 -17.1340 -17.0868 -17.0332 -17.0241 -16.9530 -16.9454 -16.9207
   -16.8627 -16.8475  -2.4064   0.1240   4.6328   5.8173   8.8584  11.0531
    12.1705  14.4634

     occupation numbers 
     1.0000   1.0000   1.0000   1.0000   1.0000   1.0000   1.0000   1.0000
     1.0000   1.0000   1.0000   1.0000   1.0000   1.0000   0.0000   0.0000
     0.0000   0.0000

          k =-0.3889-0.1632 0.3807 (  1646 PWs)   bands (ev):

   -17.1530 -17.1332 -17.0836 -17.0398 -17.0228 -16.9524 -16.9380 -16.9267
   -16.8634 -16.8457  -2.6125   0.4240   4.5211   6.0268   8.8916  11.2251
    11.9751  14.8713

     occupation numbers 
     1.0000   1.0000   1.0000   1.0000   1.0000   1.0000   1.0000   1.0000
     1.0000   1.0000   1.0000   1.0000   1.0000   1.0000   0.0000   0.0000
     0.0000   0.0000

          k =-0.3318-0.1088 0.3264 (  1658 PWs)   bands (ev):

   -17.1535 -17.1309 -17.0859 -17.0469 -17.0266 -16.9508 -16.9300 -16.9233
   -16.8666 -16.8464  -3.1164   1.2475   4.5806   6.3325   9.0071  11.4330
    11.7543  13.8469

     occupation numbers 
     1.0000   1.0000   1.0000   1.0000   1.0000   1.0000   1.0000   1.0000
     1.0000   1.0000   1.0000   1.0000   1.0000   1.0000   0.0000   0.0000
     0.0000   0.0000

          k =-0.2747-0.0544 0.2720 (  1648 PWs)   bands (ev):

   -17.1521 -17.1272 -17.0921 -17.0533 -17.0359 -16.9439 -16.9289 -16.9090
   -16.8720 -16.8493  -3.6300   2.2501   4.8630   6.7005   9.1512  11.4032
    11.5230  12.8783

     occupation numbers 
     1.0000   1.0000   1.0000   1.0000   1.0000   1.0000   1.0000   1.0000
     1.0000   1.0000   1.0000   1.0000   1.0000   1.0006   0.0000   0.0000
     0.0000   0.0000

          k =-0.2176 0.0000 0.2176 (  1639 PWs)   bands (ev):

   -17.1492 -17.1235 -17.0969 -17.0602 -17.0483 -16.9339 -16.9249 -16.8978
   -16.8780 -16.8542  -4.0524   3.2110   5.4609   7.0633   9.1638  11.0239
    11.0944  12.4915

     occupation numbers 
     1.0000   1.0000   1.0000   1.0000   1.0000   1.0000   1.0000   1.0000
     1.0000   1.0000   1.0000   1.0000   1.0000   1.0553   0.0000   0.0000
     0.0000   0.0000

          k = 0.1197 0.2176-0.0000 (  1654 PWs)   bands (ev):

   -17.1337 -17.1243 -17.1135 -17.0641 -17.0449 -16.9447 -16.9104 -16.8830
   -16.8774 -16.8729  -4.2850   4.0909   6.2513   6.8568   9.1731   9.6372
    11.3032  12.3219

     occupation numbers 
     1.0000   1.0000   1.0000   1.0000   1.0000   1.0000   1.0000   1.0000
     1.0000   1.0000   1.0000   1.0000   1.0000   1.0072   0.0000   0.0000
     0.0000   0.0000

          k = 0.1768 0.2720-0.0544 (  1658 PWs)   bands (ev):

   -17.1327 -17.1255 -17.1182 -17.0542 -17.0336 -16.9540 -16.9203 -16.8850
   -16.8726 -16.8697  -3.9298   3.0005   5.6751   6.6174   9.1271  10.0534
    11.7554  12.5289

     occupation numbers 
     1.0000   1.0000   1.0000   1.0000   1.0000   1.0000   1.0000   1.0000
     1.0000   1.0000   1.0000   1.0000   1.0000   1.0001   0.0000   0.0000
     0.0000   0.0000

          k = 0.2339 0.3264-0.1088 (  1655 PWs)   bands (ev):

   -17.1399 -17.1252 -17.1120 -17.0446 -17.0269 -16.9581 -16.9293 -16.8967
   -16.8689 -16.8609  -3.4601   1.8757   5.2659   6.3123   8.9410  10.5851
    12.0250  12.7810

     occupation numbers 
     1.0000   1.0000   1.0000   1.0000   1.0000   1.0000   1.0000   1.0000
     1.0000   1.0000   1.0000   1.0000   1.0000   1.0000   0.0000   0.0000
     0.0000   0.0000

          k = 0.2910 0.3807-0.1632 (  1653 PWs)   bands (ev):

   -17.1466 -17.1263 -17.1021 -17.0362 -17.0268 -16.9556 -16.9370 -16.9089
   -16.8676 -16.8528  -2.9300   0.8754   4.9975   6.0602   8.7893  10.8512
    11.9877  13.6063

     occupation numbers 
     1.0000   1.0000   1.0000   1.0000   1.0000   1.0000   1.0000   1.0000
     1.0000   1.0000   1.0000   1.0000   1.0000   1.0000   0.0000   0.0000
     0.0000   0.0000

          k =-0.3943-0.2720 0.4895 (  1640 PWs)   bands (ev):

   -17.1518 -17.1260 -17.0943 -17.0315 -17.0292 -16.9481 -16.9444 -16.9179
   -16.8681 -16.8469  -2.5089   0.2172   4.8496   5.9143   8.7210  10.9278
    11.9381  14.6349

     occupation numbers 
     1.0000   1.0000   1.0000   1.0000   1.0000   1.0000   1.0000   1.0000
     1.0000   1.0000   1.0000   1.0000   1.0000   1.0000   0.0000   0.0000
     0.0000   0.0000

          k =-0.3372-0.2176 0.4351 (  1644 PWs)   bands (ev):

   -17.1551 -17.1248 -17.0909 -17.0379 -17.0250 -16.9514 -16.9383 -16.9212
   -16.8702 -16.8437  -2.5393   0.2614   4.8131   5.8979   8.7496  10.9811
    11.9484  14.9970

     occupation numbers 
     1.0000   1.0000   1.0000   1.0000   1.0000   1.0000   1.0000   1.0000
     1.0000   1.0000   1.0000   1.0000   1.0000   1.0000   0.0000   0.0000
     0.0000   0.0000

          k =-0.2801-0.1632 0.3807 (  1648 PWs)   bands (ev):

   -17.1560 -17.1228 -17.0927 -17.0445 -17.0258 -16.9542 -16.9297 -16.9175
   -16.8734 -16.8436  -2.9873   0.9707   4.8938   6.0137   8.8723  11.0440
    12.0013  14.1627

     occupation numbers 
     1.0000   1.0000   1.0000   1.0000   1.0000   1.0000   1.0000   1.0000
     1.0000   1.0000   1.0000   1.0000   1.0000   1.0000   0.0000   0.0000
     0.0000   0.0000

          k =-0.2230-0.1088 0.3264 (  1649 PWs)   bands (ev):

   -17.1545 -17.1203 -17.0979 -17.0509 -17.0326 -16.9510 -16.9245 -16.9069
   -16.8777 -16.8465  -3.5154   1.9806   5.1144   6.2470   9.0689  10.9955
    12.0114  13.1241

     occupation numbers 
     1.0000   1.0000   1.0000   1.0000   1.0000   1.0000   1.0000   1.0000
     1.0000   1.0000   1.0000   1.0000   1.0000   1.0000   0.0000   0.0000
     0.0000   0.0000

          k =-0.1659-0.0544 0.2720 (  1644 PWs)   bands (ev):

   -17.1507 -17.1190 -17.1019 -17.0580 -17.0433 -16.9434 -16.9194 -16.8963
   -16.8816 -16.8523  -3.9740   3.0740   5.5187   6.5623   9.2828  10.5856
    11.8268  12.4918

     occupation numbers 
     1.0000   1.0000   1.0000   1.0000   1.0000   1.0000   1.0000   1.0000
     1.0000   1.0000   1.0000   1.0000   1.0000   1.0000   0.0000   0.0000
     0.0000   0.0000

          k =-0.1088 0.0000 0.2176 (  1642 PWs)   bands (ev):

   -17.1462 -17.1207 -17.0994 -17.0662 -17.0553 -16.9332 -16.9138 -16.8955
   -16.8784 -16.8603  -4.3153   4.0750   6.1626   6.8740   9.3776   9.9637
    11.4645  12.0548

     occupation numbers 
     1.0000   1.0000   1.0000   1.0000   1.0000   1.0000   1.0000   1.0000
     1.0000   1.0000   1.0000   1.0000   1.0000   1.0090   0.0000   0.0000
     0.0000   0.0000

          k = 0.0000 0.0000 0.2176 (  1645 PWs)   bands (ev):

   -17.1446 -17.1213 -17.0991 -17.0699 -17.0559 -16.9354 -16.9060 -16.8987
   -16.8729 -16.8662  -4.4035   4.5312   6.3883   6.6924   9.2500   9.9283
    11.4836  11.8867

     occupation numbers 
     1.0000   1.0000   1.0000   1.0000   1.0000   1.0000   1.0000   1.0000
     1.0000   1.0000   1.0000   1.0000   1.0000   1.0006   0.0000   0.0000
     0.0000   0.0000

          k = 0.2284 0.2176-0.0000 (  1666 PWs)   bands (ev):

   -17.1312 -17.1241 -17.1203 -17.0556 -17.0360 -16.9494 -16.9219 -16.8840
   -16.8740 -16.8701  -3.9940   3.1765   5.5588   7.0471   8.8868  10.6423
    10.9421  12.6420

     occupation numbers 
     1.0000   1.0000   1.0000   1.0000   1.0000   1.0000   1.0000   1.0000
     1.0000   1.0000   1.0000   1.0000   1.0000   1.0497   0.0000   0.0000
     0.0000   0.0000

          k = 0.2856 0.2720-0.0544 (  1661 PWs)   bands (ev):

   -17.1400 -17.1243 -17.1126 -17.0468 -17.0258 -16.9568 -16.9299 -16.8976
   -16.8669 -16.8624  -3.5590   2.1535   4.9854   6.6951   8.9547  11.1013
    11.4216  12.7027

     occupation numbers 
     1.0000   1.0000   1.0000   1.0000   1.0000   1.0000   1.0000   1.0000
     1.0000   1.0000   1.0000   1.0000   1.0000   1.0006   0.0000   0.0000
     0.0000   0.0000

          k = 0.3427 0.3264-0.1088 (  1647 PWs)   bands (ev):

   -17.1481 -17.1258 -17.1013 -17.0383 -17.0221 -16.9577 -16.9365 -16.9125
   -16.8660 -16.8521  -3.0386   1.1463   4.6646   6.3219   8.8735  11.4807
    11.4902  13.4673

     occupation numbers 
     1.0000   1.0000   1.0000   1.0000   1.0000   1.0000   1.0000   1.0000
     1.0000   1.0000   1.0000   1.0000   1.0000   1.0000   0.0000   0.0000
     0.0000   0.0000

          k =-0.3427-0.3264 0.5439 (  1648 PWs)   bands (ev):

   -17.1545 -17.1251 -17.0931 -17.0299 -17.0250 -16.9521 -16.9444 -16.9225
   -16.8672 -16.8445  -2.5480   0.3588   4.5413   6.0026   8.8044  11.3296
    11.7538  14.6311

     occupation numbers 
     1.0000   1.0000   1.0000   1.0000   1.0000   1.0000   1.0000   1.0000
     1.0000   1.0000   1.0000   1.0000   1.0000   1.0000   0.0000   0.0000
     0.0000   0.0000

          k =-0.2856-0.2720 0.4895 (  1640 PWs)   bands (ev):

   -17.1586 -17.1227 -17.0904 -17.0313 -17.0228 -16.9552 -16.9435 -16.9228
   -16.8703 -16.8402  -2.3982   0.1420   4.5851   5.7747   8.8033  11.2279
    11.9942  15.0084

     occupation numbers 
     1.0000   1.0000   1.0000   1.0000   1.0000   1.0000   1.0000   1.0000
     1.0000   1.0000   1.0000   1.0000   1.0000   1.0000   0.0000   0.0000
     0.0000   0.0000

          k =-0.2284-0.2176 0.4351 (  1648 PWs)   bands (ev):

   -17.1598 -17.1194 -17.0938 -17.0384 -17.0201 -16.9628 -16.9345 -16.9157
   -16.8749 -16.8395  -2.7532   0.6682   4.7820   5.6585   8.8870  11.2035
    12.2349  13.9476

     occupation numbers 
     1.0000   1.0000   1.0000   1.0000   1.0000   1.0000   1.0000   1.0000
     1.0000   1.0000   1.0000   1.0000   1.0000   1.0000   0.0000   0.0000
     0.0000   0.0000

          k =-0.1713-0.1632 0.3807 (  1654 PWs)   bands (ev):

   -17.1581 -17.1154 -17.1016 -17.0457 -17.0242 -16.9631 -16.9261 -16.9043
   -16.8806 -16.8425  -3.2818   1.5893   5.1273   5.6641   9.0445  11.1207
    12.4183  12.9187

     occupation numbers 
     1.0000   1.0000   1.0000   1.0000   1.0000   1.0000   1.0000   1.0000
     1.0000   1.0000   1.0000   1.0000   1.0000   1.0000   0.0000   0.0000
     0.0000   0.0000

          k =-0.1142-0.1088 0.3264 (  1636 PWs)   bands (ev):

   -17.1539 -17.1110 -17.1105 -17.0536 -17.0333 -16.9571 -16.9180 -16.8912
   -16.8872 -16.8486  -3.7710   2.6458   5.6169   5.7941   9.2105  10.6961
    12.3988  12.4962

     occupation numbers 
     1.0000   1.0000   1.0000   1.0000   1.0000   1.0000   1.0000   1.0000
     1.0000   1.0000   1.0000   1.0000   1.0000   1.0000   0.0000   0.0000
     0.0000   0.0000

          k =-0.0571-0.0544 0.2720 (  1642 PWs)   bands (ev):

   -17.1485 -17.1187 -17.1047 -17.0622 -17.0445 -16.9474 -16.9098 -16.8947
   -16.8795 -16.8575  -4.1527   3.6820   6.0420   6.2069   9.2216  10.2306
    12.0585  12.3604

     occupation numbers 
     1.0000   1.0000   1.0000   1.0000   1.0000   1.0000   1.0000   1.0000
     1.0000   1.0000   1.0000   1.0000   1.0000   1.0000   0.0000   0.0000
     0.0000   0.0000

          k = 0.0517-0.0544 0.2720 (  1642 PWs)   bands (ev):

   -17.1476 -17.1229 -17.1012 -17.0629 -17.0458 -16.9466 -16.9057 -16.9019
   -16.8719 -16.8610  -4.1609   3.6147   6.0657   6.3786   9.2440  10.0086
    12.1553  12.3849

     occupation numbers 
     1.0000   1.0000   1.0000   1.0000   1.0000   1.0000   1.0000   1.0000
     1.0000   1.0000   1.0000   1.0000   1.0000   1.0000   0.0000   0.0000
     0.0000   0.0000

          k = 0.3372 0.2176 0.0000 (  1656 PWs)   bands (ev):

   -17.1402 -17.1258 -17.1126 -17.0457 -17.0205 -16.9653 -16.9287 -16.8953
   -16.8666 -16.8622  -3.5345   2.1879   4.8902   6.4096   9.4524  10.3455
    12.2242  12.2667

     occupation numbers 
     1.0000   1.0000   1.0000   1.0000   1.0000   1.0000   1.0000   1.0000
     1.0000   1.0000   1.0000   1.0000   1.0000   1.0000   0.0000   0.0000
     0.0000   0.0000

          k = 0.3943 0.2720-0.0544 (  1655 PWs)   bands (ev):

   -17.1494 -17.1284 -17.0992 -17.0366 -17.0125 -16.9707 -16.9368 -16.9117
   -16.8641 -16.8508  -3.0359   1.2952   4.3893   6.0672   9.4409  10.8794
    12.2039  12.8310

     occupation numbers 
     1.0000   1.0000   1.0000   1.0000   1.0000   1.0000   1.0000   1.0000
     1.0000   1.0000   1.0000   1.0000   1.0000   1.0000   0.0000   0.0000
     0.0000   0.0000

          k =-0.2910-0.3807 0.5983 (  1646 PWs)   bands (ev):

   -17.1571 -17.1291 -17.0877 -17.0269 -17.0134 -16.9669 -16.9468 -16.9248
   -16.8637 -16.8418  -2.5103   0.4805   4.1414   5.7485   9.3290  11.0718
    12.5259  13.6339

     occupation numbers 
     1.0000   1.0000   1.0000   1.0000   1.0000   1.0000   1.0000   1.0000
     1.0000   1.0000   1.0000   1.0000   1.0000   1.0000   0.0000   0.0000
     0.0000   0.0000

          k =-0.2339-0.3264 0.5439 (  1647 PWs)   bands (ev):

   -17.1620 -17.1281 -17.0817 -17.0218 -17.0156 -16.9629 -16.9548 -16.9286
   -16.8651 -16.8364  -2.2011   0.0538   4.0927   5.5293   9.2424  11.1146
    12.7806  14.6784

     occupation numbers 
     1.0000   1.0000   1.0000   1.0000   1.0000   1.0000   1.0000   1.0000
     1.0000   1.0000   1.0000   1.0000   1.0000   1.0000   0.0000   0.0000
     0.0000   0.0000

          k =-0.1768-0.2720 0.4895 (  1646 PWs)   bands (ev):

   -17.1637 -17.1261 -17.0827 -17.0299 -17.0108 -16.9726 -16.9438 -16.9248
   -16.8682 -16.8352  -2.4275   0.3591   4.2097   5.4484   9.2220  11.2073
    12.9239  13.8444

     occupation numbers 
     1.0000   1.0000   1.0000   1.0000   1.0000   1.0000   1.0000   1.0000
     1.0000   1.0000   1.0000   1.0000   1.0000   1.0000   0.0000   0.0000
     0.0000   0.0000

          k =-0.1197-0.2176 0.4351 (  1645 PWs)   bands (ev):

   -17.1620 -17.1234 -17.0898 -17.0385 -17.0141 -16.9739 -16.9327 -16.9147
   -16.8724 -16.8380  -2.9405   1.1336   4.4796   5.5256   9.2741  11.2415
    12.5160  13.2507

     occupation numbers 
     1.0000   1.0000   1.0000   1.0000   1.0000   1.0000   1.0000   1.0000
     1.0000   1.0000   1.0000   1.0000   1.0000   1.0000   0.0000   0.0000
     0.0000   0.0000

          k =-0.0626-0.1632 0.3807 (  1643 PWs)   bands (ev):

   -17.1576 -17.1210 -17.0990 -17.0468 -17.0233 -16.9681 -16.9234 -16.9018
   -16.8770 -16.8443  -3.4522   2.0387   4.9054   5.7578   9.3434  10.7583
    12.2674  13.1388

     occupation numbers 
     1.0000   1.0000   1.0000   1.0000   1.0000   1.0000   1.0000   1.0000
     1.0000   1.0000   1.0000   1.0000   1.0000   1.0000   0.0000   0.0000
     0.0000   0.0000

          k =-0.0054-0.1088 0.3264 (  1643 PWs)   bands (ev):

   -17.1519 -17.1213 -17.1036 -17.0552 -17.0345 -16.9586 -16.9144 -16.8960
   -16.8767 -16.8531  -3.8692   2.9011   5.4779   6.0891   9.2583  10.2572
    12.4063  12.7883

     occupation numbers 
     1.0000   1.0000   1.0000   1.0000   1.0000   1.0000   1.0000   1.0000
     1.0000   1.0000   1.0000   1.0000   1.0000   1.0000   0.0000   0.0000
     0.0000   0.0000

          k = 0.1033-0.1088 0.3264 (  1643 PWs)   bands (ev):

   -17.1510 -17.1271 -17.0982 -17.0545 -17.0387 -16.9538 -16.9144 -16.9025
   -16.8693 -16.8553  -3.8066   2.5258   5.7019   6.1372   9.4671  10.0547
    12.3814  12.6819

     occupation numbers 
     1.0000   1.0000   1.0000   1.0000   1.0000   1.0000   1.0000   1.0000
     1.0000   1.0000   1.0000   1.0000   1.0000   1.0000   0.0000   0.0000
     0.0000   0.0000

          k = 0.1605-0.0544 0.2720 (  1638 PWs)   bands (ev):

   -17.1501 -17.1249 -17.0962 -17.0595 -17.0469 -16.9412 -16.9168 -16.9021
   -16.8734 -16.8551  -3.9987   2.9767   5.6849   6.6969   9.5023  10.1116
    12.0280  12.4201

     occupation numbers 
     1.0000   1.0000   1.0000   1.0000   1.0000   1.0000   1.0000   1.0000
     1.0000   1.0000   1.0000   1.0000   1.0000   1.0006   0.0000   0.0000
     0.0000   0.0000

          k = 0.4460 0.2176-0.0000 (  1657 PWs)   bands (ev):

   -17.1492 -17.1316 -17.0989 -17.0313 -17.0007 -16.9879 -16.9397 -16.9071
   -16.8626 -16.8505  -2.9186   1.1989   4.3819   5.5849  10.0408  10.0821
    11.8211  13.7678

     occupation numbers 
     1.0000   1.0000   1.0000   1.0000   1.0000   1.0000   1.0000   1.0000
     1.0000   1.0000   1.0000   1.0000   1.0000   1.0000   0.0000   0.0000
     0.0000   0.0000

          k =-0.2393-0.4351 0.6527 (  1653 PWs)   bands (ev):

   -17.1578 -17.1338 -17.0837 -17.0206 -17.0005 -16.9853 -16.9515 -16.9236
   -16.8600 -16.8406  -2.3848   0.4595   3.9716   5.2781  10.0091  10.7981
    11.8738  14.2309

     occupation numbers 
     1.0000   1.0000   1.0000   1.0000   1.0000   1.0000   1.0000   1.0000
     1.0000   1.0000   1.0000   1.0000   1.0000   1.0000   0.0000   0.0000
     0.0000   0.0000

          k =-0.1822-0.3807 0.5983 (  1649 PWs)   bands (ev):

   -17.1639 -17.1346 -17.0725 -17.0127 -17.0043 -16.9775 -16.9641 -16.9333
   -16.8593 -16.8341  -1.9539  -0.0796   3.7666   5.0863   9.9709  10.9377
    12.8779  14.3439

     occupation numbers 
     1.0000   1.0000   1.0000   1.0000   1.0000   1.0000   1.0000   1.0000
     1.0000   1.0000   1.0000   1.0000   1.0000   1.0000   0.0000   0.0000
     0.0000   0.0000

          k =-0.1251-0.3264 0.5439 (  1648 PWs)   bands (ev):

   -17.1664 -17.1342 -17.0690 -17.0193 -17.0002 -16.9824 -16.9585 -16.9345
   -16.8602 -16.8319  -2.0308   0.0122   3.7480   5.0724   9.9454  11.0138
    13.5398  13.9975

     occupation numbers 
     1.0000   1.0000   1.0000   1.0000   1.0000   1.0000   1.0000   1.0000
     1.0000   1.0000   1.0000   1.0000   1.0000   1.0000   0.0000   0.0000
     0.0000   0.0000

          k =-0.0680-0.2720 0.4895 (  1649 PWs)   bands (ev):

   -17.1652 -17.1329 -17.0741 -17.0298 -17.0064 -16.9809 -16.9434 -16.9286
   -16.8626 -16.8342  -2.5162   0.6220   3.9288   5.2436   9.9426  11.1321
    12.3338  14.2461

     occupation numbers 
     1.0000   1.0000   1.0000   1.0000   1.0000   1.0000   1.0000   1.0000
     1.0000   1.0000   1.0000   1.0000   1.0000   1.0000   0.0000   0.0000
     0.0000   0.0000

          k =-0.0109-0.2176 0.4351 (  1644 PWs)   bands (ev):

   -17.1609 -17.1307 -17.0850 -17.0392 -17.0168 -16.9743 -16.9312 -16.9157
   -16.8661 -16.8402  -3.0400   1.3302   4.3470   5.5603   9.9433  10.6815
    11.9741  13.9315

     occupation numbers 
     1.0000   1.0000   1.0000   1.0000   1.0000   1.0000   1.0000   1.0000
     1.0000   1.0000   1.0000   1.0000   1.0000   1.0000   0.0000   0.0000
     0.0000   0.0000

          k = 0.0462-0.1632 0.3807 (  1639 PWs)   bands (ev):

   -17.1551 -17.1285 -17.0951 -17.0472 -17.0280 -16.9651 -16.9221 -16.9039
   -16.8691 -16.8485  -3.4823   1.9742   4.9999   5.9121   9.6541  10.2318
    12.2493  13.2451

     occupation numbers 
     1.0000   1.0000   1.0000   1.0000   1.0000   1.0000   1.0000   1.0000
     1.0000   1.0000   1.0000   1.0000   1.0000   1.0000   0.0000   0.0000
     0.0000   0.0000

          k = 0.1550-0.1632 0.3807 (  1642 PWs)   bands (ev):

   -17.1540 -17.1324 -17.0913 -17.0465 -17.0359 -16.9565 -16.9229 -16.9076
   -16.8650 -16.8503  -3.3733   1.5013   5.3168   5.9944   9.3979  10.5427
    12.5550  12.7220

     occupation numbers 
     1.0000   1.0000   1.0000   1.0000   1.0000   1.0000   1.0000   1.0000
     1.0000   1.0000   1.0000   1.0000   1.0000   1.0000   0.0000   0.0000
     0.0000   0.0000

          k = 0.2121-0.1088 0.3264 (  1643 PWs)   bands (ev):

   -17.1536 -17.1298 -17.0901 -17.0527 -17.0416 -16.9454 -16.9214 -16.9104
   -16.8681 -16.8504  -3.5881   1.8892   5.3611   6.4321   9.3692  10.5816
    12.2083  12.8037

     occupation numbers 
     1.0000   1.0000   1.0000   1.0000   1.0000   1.0000   1.0000   1.0000
     1.0000   1.0000   1.0000   1.0000   1.0000   1.0000   0.0000   0.0000
     0.0000   0.0000

          k = 0.2692-0.0544 0.2720 (  1644 PWs)   bands (ev):

   -17.1541 -17.1288 -17.0881 -17.0554 -17.0405 -16.9394 -16.9294 -16.9094
   -16.8704 -16.8486  -3.6719   2.2048   4.9845   6.7694   9.2774  11.3991
    11.5538  12.7526

     occupation numbers 
     1.0000   1.0000   1.0000   1.0000   1.0000   1.0000   1.0000   1.0000
     1.0000   1.0000   1.0000   1.0000   1.0000   1.0020   0.0000   0.0000
     0.0000   0.0000

          k = 0.3264 0.0000 0.2176 (  1647 PWs)   bands (ev):

   -17.1517 -17.1306 -17.0915 -17.0526 -17.0316 -16.9552 -16.9229 -16.9080
   -16.8693 -16.8500  -3.6211   2.2778   4.8106   6.4364   9.7118  10.5644
    12.2694  12.5299

     occupation numbers 
     1.0000   1.0000   1.0000   1.0000   1.0000   1.0000   1.0000   1.0000
     1.0000   1.0000   1.0000   1.0000   1.0000   1.0000   0.0000   0.0000
     0.0000   0.0000

          k =-0.1877-0.4895 0.7071 (  1651 PWs)   bands (ev):

   -17.1565 -17.1376 -17.0815 -17.0122 -17.0117 -16.9791 -16.9579 -16.9219
   -16.8570 -16.8413  -2.1667   0.2232   4.0860   4.8721   9.9047  10.1609
    12.1788  15.2578

     occupation numbers 
     1.0000   1.0000   1.0000   1.0000   1.0000   1.0000   1.0000   1.0000
     1.0000   1.0000   1.0000   1.0000   1.0000   1.0000   0.0000   0.0000
     0.0000   0.0000

          k =-0.1305-0.4351 0.6527 (  1647 PWs)   bands (ev):

   -17.1635 -17.1396 -17.0653 -17.0143 -17.0003 -16.9749 -16.9715 -16.9374
   -16.8547 -16.8341  -1.6557  -0.3426   3.7702   4.6453  10.1218  11.1797
    11.9380  15.0868

     occupation numbers 
     1.0000   1.0000   1.0000   1.0000   1.0000   1.0000   1.0000   1.0000
     1.0000   1.0000   1.0000   1.0000   1.0000   1.0000   0.0000   0.0000
     0.0000   0.0000

          k =-0.0734-0.3807 0.5983 (  1650 PWs)   bands (ev):

   -17.1673 -17.1405 -17.0573 -17.0122 -16.9992 -16.9802 -16.9722 -16.9419
   -16.8542 -16.8307  -1.6012  -0.3942   3.5898   4.6673  10.2992  11.4852
    12.8677  13.7017

     occupation numbers 
     1.0000   1.0000   1.0000   1.0000   1.0000   1.0000   1.0000   1.0000
     1.0000   1.0000   1.0000   1.0000   1.0000   1.0000   0.0000   0.0000
     0.0000   0.0000

          k =-0.0163-0.3264 0.5439 (  1649 PWs)   bands (ev):

   -17.1671 -17.1401 -17.0600 -17.0200 -17.0064 -16.9811 -16.9575 -16.9375
   -16.8553 -16.8318  -2.0738   0.1062   3.6472   4.9092  10.5148  11.3745
    12.3011  14.3245

     occupation numbers 
     1.0000   1.0000   1.0000   1.0000   1.0000   1.0000   1.0000   1.0000
     1.0000   1.0000   1.0000   1.0000   1.0000   1.0000   0.0000   0.0000
     0.0000   0.0000

          k = 0.0408-0.2720 0.4895 (  1647 PWs)   bands (ev):

   -17.1633 -17.1384 -17.0713 -17.0321 -17.0142 -16.9761 -16.9406 -16.9273
   -16.8579 -16.8370  -2.5916   0.6382   4.0089   5.3057  10.5895  10.7755
    11.8815  14.3576

     occupation numbers 
     1.0000   1.0000   1.0000   1.0000   1.0000   1.0000   1.0000   1.0000
     1.0000   1.0000   1.0000   1.0000   1.0000   1.0000   0.0000   0.0000
     0.0000   0.0000

          k = 0.0979-0.2176 0.4351 (  1643 PWs)   bands (ev):

   -17.1579 -17.1356 -17.0844 -17.0398 -17.0257 -16.9669 -16.9303 -16.9136
   -16.8617 -16.8444  -3.0360   1.0933   4.6363   5.7327   9.7697  10.7135
    12.2079  13.4084

     occupation numbers 
     1.0000   1.0000   1.0000   1.0000   1.0000   1.0000   1.0000   1.0000
     1.0000   1.0000   1.0000   1.0000   1.0000   1.0000   0.0000   0.0000
     0.0000   0.0000

          k = 0.2067-0.2176 0.4351 (  1648 PWs)   bands (ev):

   -17.1563 -17.1372 -17.0831 -17.0397 -17.0371 -16.9554 -16.9304 -16.9139
   -16.8607 -16.8465  -2.9456   0.6941   4.9830   5.9613   9.2900  10.9579
    12.6019  13.1562

     occupation numbers 
     1.0000   1.0000   1.0000   1.0000   1.0000   1.0000   1.0000   1.0000
     1.0000   1.0000   1.0000   1.0000   1.0000   1.0000   0.0000   0.0000
     0.0000   0.0000

          k = 0.2638-0.1632 0.3807 (  1649 PWs)   bands (ev):

   -17.1563 -17.1339 -17.0832 -17.0474 -17.0394 -16.9461 -16.9261 -16.9184
   -16.8639 -16.8466  -3.1433   0.9683   5.1519   6.1956   9.2445  10.9038
    12.1921  13.4978

     occupation numbers 
     1.0000   1.0000   1.0000   1.0000   1.0000   1.0000   1.0000   1.0000
     1.0000   1.0000   1.0000   1.0000   1.0000   1.0000   0.0000   0.0000
     0.0000   0.0000

          k = 0.3209-0.1088 0.3264 (  1651 PWs)   bands (ev):

   -17.1580 -17.1329 -17.0797 -17.0500 -17.0361 -16.9413 -16.9328 -16.9217
   -16.8650 -16.8439  -3.2283   1.2525   4.7352   6.4487   9.2214  11.6338
    11.7528  13.5299

     occupation numbers 
     1.0000   1.0000   1.0000   1.0000   1.0000   1.0000   1.0000   1.0000
     1.0000   1.0000   1.0000   1.0000   1.0000   1.0000   0.0000   0.0000
     0.0000   0.0000

          k = 0.3780-0.0544 0.2720 (  1643 PWs)   bands (ev):

   -17.1577 -17.1349 -17.0799 -17.0468 -17.0253 -16.9596 -16.9271 -16.9234
   -16.8634 -16.8431  -3.1927   1.4326   4.3645   6.1524   9.7095  11.0738
    12.5193  12.9895

     occupation numbers 
     1.0000   1.0000   1.0000   1.0000   1.0000   1.0000   1.0000   1.0000
     1.0000   1.0000   1.0000   1.0000   1.0000   1.0000   0.0000   0.0000
     0.0000   0.0000

          k = 0.4351-0.0000 0.2176 (  1645 PWs)   bands (ev):

   -17.1537 -17.1388 -17.0843 -17.0388 -17.0109 -16.9799 -16.9321 -16.9156
   -16.8595 -16.8464  -3.0331   1.3343   4.3364   5.5790  10.1019  10.4627
    11.9363  13.9382

     occupation numbers 
     1.0000   1.0000   1.0000   1.0000   1.0000   1.0000   1.0000   1.0000
     1.0000   1.0000   1.0000   1.0000   1.0000   1.0000   0.0000   0.0000
     0.0000   0.0000

          k =-0.0789-0.4895 0.7071 (  1645 PWs)   bands (ev):

   -17.1611 -17.1425 -17.0601 -17.0338 -16.9900 -16.9802 -16.9580 -16.9413
   -16.8522 -16.8361  -1.3101  -0.7270   4.0362   4.3676   9.9596   9.9712
    13.1225  15.4220

     occupation numbers 
     1.0000   1.0000   1.0000   1.0000   1.0000   1.0000   1.0000   1.0000
     1.0000   1.0000   1.0000   1.0000   1.0000   1.0000   0.0000   0.0000
     0.0000   0.0000

          k =-0.0218-0.4351 0.6527 (  1648 PWs)   bands (ev):

   -17.1658 -17.1442 -17.0483 -17.0272 -16.9974 -16.9767 -16.9659 -16.9471
   -16.8508 -16.8320  -1.3191  -0.6889   3.7596   4.3531  10.1543  11.3263
    12.8264  13.8886

     occupation numbers 
     1.0000   1.0000   1.0000   1.0000   1.0000   1.0000   1.0000   1.0000
     1.0000   1.0000   1.0000   1.0000   1.0000   1.0000   0.0000   0.0000
     0.0000   0.0000

          k = 0.0354-0.3807 0.5983 (  1651 PWs)   bands (ev):

   -17.1671 -17.1445 -17.0516 -17.0158 -17.0090 -16.9828 -16.9618 -16.9409
   -16.8511 -16.8315  -1.8133  -0.1927   3.6271   4.6640  10.4345  12.2339
    12.6228  13.0206

     occupation numbers 
     1.0000   1.0000   1.0000   1.0000   1.0000   1.0000   1.0000   1.0000
     1.0000   1.0000   1.0000   1.0000   1.0000   1.0000   0.0000   0.0000
     0.0000   0.0000

          k = 0.0925-0.3264 0.5439 (  1644 PWs)   bands (ev):

   -17.1646 -17.1434 -17.0614 -17.0289 -17.0110 -16.9795 -16.9479 -16.9325
   -16.8531 -16.8352  -2.2639   0.1811   3.8468   5.1392  10.5400  11.1785
    12.5400  14.2132

     occupation numbers 
     1.0000   1.0000   1.0000   1.0000   1.0000   1.0000   1.0000   1.0000
     1.0000   1.0000   1.0000   1.0000   1.0000   1.0000   0.0000   0.0000
     0.0000   0.0000

          k = 0.1496-0.2720 0.4895 (  1646 PWs)   bands (ev):

   -17.1599 -17.1409 -17.0745 -17.0355 -17.0251 -16.9664 -16.9377 -16.9210
   -16.8565 -16.8414  -2.6473   0.4489   4.3674   5.6539   9.7513  11.1362
    12.6374  13.4978

     occupation numbers 
     1.0000   1.0000   1.0000   1.0000   1.0000   1.0000   1.0000   1.0000
     1.0000   1.0000   1.0000   1.0000   1.0000   1.0000   0.0000   0.0000
     0.0000   0.0000

          k =-0.4134 0.4351-0.2176 (  1640 PWs)   bands (ev):

   -17.1578 -17.1403 -17.0755 -17.0414 -17.0353 -16.9522 -16.9360 -16.9186
   -16.8582 -16.8441  -2.7207   0.3274   4.7417   6.0388   9.2565  11.1826
    12.4295  14.1359

     occupation numbers 
     1.0000   1.0000   1.0000   1.0000   1.0000   1.0000   1.0000   1.0000
     1.0000   1.0000   1.0000   1.0000   1.0000   1.0000   0.0000   0.0000
     0.0000   0.0000

          k =-0.3563 0.4895-0.2720 (  1646 PWs)   bands (ev):

   -17.1581 -17.1365 -17.0773 -17.0463 -17.0376 -16.9455 -16.9304 -16.9225
   -16.8618 -16.8439  -2.8158   0.4025   5.0341   6.0564   9.1905  11.0271
    12.1778  14.4106

     occupation numbers 
     1.0000   1.0000   1.0000   1.0000   1.0000   1.0000   1.0000   1.0000
     1.0000   1.0000   1.0000   1.0000   1.0000   1.0000   0.0000   0.0000
     0.0000   0.0000

          k =-0.2992 0.5439-0.3264 (  1647 PWs)   bands (ev):

   -17.1605 -17.1352 -17.0748 -17.0440 -17.0352 -16.9413 -16.9376 -16.9280
   -16.8625 -16.8406  -2.8311   0.5459   4.6557   6.1704   9.1546  11.5143
    12.0189  14.5868

     occupation numbers 
     1.0000   1.0000   1.0000   1.0000   1.0000   1.0000   1.0000   1.0000
     1.0000   1.0000   1.0000   1.0000   1.0000   1.0000   0.0000   0.0000
     0.0000   0.0000

          k =-0.2420 0.5983-0.3807 (  1645 PWs)   bands (ev):

   -17.1619 -17.1374 -17.0719 -17.0386 -17.0236 -16.9597 -16.9388 -16.9292
   -16.8600 -16.8381  -2.7563   0.6856   4.1573   5.8970   9.6078  11.2012
    12.9965  13.7400

     occupation numbers 
     1.0000   1.0000   1.0000   1.0000   1.0000   1.0000   1.0000   1.0000
     1.0000   1.0000   1.0000   1.0000   1.0000   1.0000   0.0000   0.0000
     0.0000   0.0000

          k =-0.1849 0.6527-0.4351 (  1642 PWs)   bands (ev):

   -17.1601 -17.1415 -17.0711 -17.0311 -17.0056 -16.9837 -16.9421 -16.9282
   -16.8557 -16.8389  -2.5829   0.6680   3.9321   5.3449  10.1729  11.0701
    12.0752  14.4723

     occupation numbers 
     1.0000   1.0000   1.0000   1.0000   1.0000   1.0000   1.0000   1.0000
     1.0000   1.0000   1.0000   1.0000   1.0000   1.0000   0.0000   0.0000
     0.0000   0.0000

          k =-0.1278 0.7071-0.4895 (  1643 PWs)   bands (ev):

   -17.1548 -17.1460 -17.0728 -17.0221 -17.0068 -16.9848 -16.9505 -16.9250
   -16.8509 -16.8432  -2.3069   0.3853   4.0821   4.8370   9.9308  10.3926
    12.4713  15.1412

     occupation numbers 
     1.0000   1.0000   1.0000   1.0000   1.0000   1.0000   1.0000   1.0000
     1.0000   1.0000   1.0000   1.0000   1.0000   1.0000   0.0000   0.0000
     0.0000   0.0000

          k =-0.6418 0.2176-0.0000 (  1646 PWs)   bands (ev):

   -17.1628 -17.1451 -17.0524 -17.0352 -17.0037 -16.9671 -16.9643 -16.9395
   -16.8503 -16.8353  -1.6264  -0.3923   4.1061   4.2616   9.8957  10.2089
    14.1411  14.2155

     occupation numbers 
     1.0000   1.0000   1.0000   1.0000   1.0000   1.0000   1.0000   1.0000
     1.0000   1.0000   1.0000   1.0000   1.0000   1.0000   0.0000   0.0000
     0.0000   0.0000

          k =-0.5847 0.2720-0.0544 (  1643 PWs)   bands (ev):

   -17.1651 -17.1461 -17.0536 -17.0195 -17.0117 -16.9841 -16.9555 -16.9368
   -16.8501 -16.8338  -2.0063   0.0213   3.8046   4.5987  10.2984  11.5131
    12.6138  13.9315

     occupation numbers 
     1.0000   1.0000   1.0000   1.0000   1.0000   1.0000   1.0000   1.0000
     1.0000   1.0000   1.0000   1.0000   1.0000   1.0000   0.0000   0.0000
     0.0000   0.0000

          k =-0.5276 0.3264-0.1088 (  1648 PWs)   bands (ev):

   -17.1643 -17.1456 -17.0585 -17.0318 -17.0063 -16.9857 -16.9465 -16.9318
   -16.8516 -16.8355  -2.3158   0.2479   3.8284   5.1302  10.5098  11.2830
    13.1790  13.6391

     occupation numbers 
     1.0000   1.0000   1.0000   1.0000   1.0000   1.0000   1.0000   1.0000
     1.0000   1.0000   1.0000   1.0000   1.0000   1.0000   0.0000   0.0000
     0.0000   0.0000

          k =-0.4705 0.3807-0.1632 (  1645 PWs)   bands (ev):

   -17.1609 -17.1437 -17.0677 -17.0377 -17.0235 -16.9658 -16.9412 -16.9240
   -16.8543 -16.8399  -2.5534   0.3074   4.2012   5.7087   9.7964  11.2450
    13.0046  14.0547

     occupation numbers 
     1.0000   1.0000   1.0000   1.0000   1.0000   1.0000   1.0000   1.0000
     1.0000   1.0000   1.0000   1.0000   1.0000   1.0000   0.0000   0.0000
     0.0000   0.0000

          k =-0.3617 0.3807-0.1632 (  1632 PWs)   bands (ev):

   -17.1584 -17.1411 -17.0702 -17.0485 -17.0344 -16.9479 -16.9384 -16.9195
   -16.8582 -16.8432  -2.8855   0.5935   4.6191   6.2197   9.3102  11.3645
    12.2443  14.7692

     occupation numbers 
     1.0000   1.0000   1.0000   1.0000   1.0000   1.0000   1.0000   1.0000
     1.0000   1.0000   1.0000   1.0000   1.0000   1.0000   0.0000   0.0000
     0.0000   0.0000

          k =-0.3046 0.4351-0.2176 (  1643 PWs)   bands (ev):

   -17.1587 -17.1374 -17.0741 -17.0496 -17.0358 -16.9471 -16.9301 -16.9222
   -16.8619 -16.8429  -2.8368   0.4364   4.9963   6.0474   9.2202  11.0855
    12.1864  14.7816

     occupation numbers 
     1.0000   1.0000   1.0000   1.0000   1.0000   1.0000   1.0000   1.0000
     1.0000   1.0000   1.0000   1.0000   1.0000   1.0000   0.0000   0.0000
     0.0000   0.0000

          k =-0.2475 0.4895-0.2720 (  1643 PWs)   bands (ev):

   -17.1614 -17.1356 -17.0746 -17.0417 -17.0338 -16.9507 -16.9330 -16.9262
   -16.8627 -16.8395  -2.7053   0.3440   4.7185   5.9714   9.1395  11.4188
    12.2366  14.6828

     occupation numbers 
     1.0000   1.0000   1.0000   1.0000   1.0000   1.0000   1.0000   1.0000
     1.0000   1.0000   1.0000   1.0000   1.0000   1.0000   0.0000   0.0000
     0.0000   0.0000

          k =-0.1904 0.5439-0.3264 (  1643 PWs)   bands (ev):

   -17.1637 -17.1381 -17.0699 -17.0299 -17.0261 -16.9608 -16.9458 -16.9289
   -16.8591 -16.8359  -2.4999   0.2942   4.1319   5.7257   9.5104  11.2390
    13.1815  14.4599

     occupation numbers 
     1.0000   1.0000   1.0000   1.0000   1.0000   1.0000   1.0000   1.0000
     1.0000   1.0000   1.0000   1.0000   1.0000   1.0000   0.0000   0.0000
     0.0000   0.0000

          k =-0.1333 0.5983-0.3807 (  1638 PWs)   bands (ev):

   -17.1637 -17.1429 -17.0636 -17.0227 -17.0058 -16.9826 -16.9539 -16.9332
   -16.8539 -16.8348  -2.2246   0.1842   3.7410   5.2084  10.1889  11.1032
    13.1328  14.2756

     occupation numbers 
     1.0000   1.0000   1.0000   1.0000   1.0000   1.0000   1.0000   1.0000
     1.0000   1.0000   1.0000   1.0000   1.0000   1.0000   0.0000   0.0000
     0.0000   0.0000

          k =-0.0761 0.6527-0.4351 (  1637 PWs)   bands (ev):

   -17.1604 -17.1476 -17.0588 -17.0163 -17.0041 -16.9839 -16.9618 -16.9371
   -16.8489 -16.8370  -1.8798  -0.1039   3.7378   4.6880  10.1617  11.4210
    12.1977  14.5790

     occupation numbers 
     1.0000   1.0000   1.0000   1.0000   1.0000   1.0000   1.0000   1.0000
     1.0000   1.0000   1.0000   1.0000   1.0000   1.0000   0.0000   0.0000
     0.0000   0.0000

          k =-0.0190 0.7071-0.4895 (  1655 PWs)   bands (ev):

   -17.1543 -17.1514 -17.0559 -17.0349 -16.9961 -16.9754 -16.9596 -16.9407
   -16.8449 -16.8423  -1.4701  -0.5593   4.0723   4.3232   9.9146  10.0866
    13.5752  14.7718

     occupation numbers 
     1.0000   1.0000   1.0000   1.0000   1.0000   1.0000   1.0000   1.0000
     1.0000   1.0000   1.0000   1.0000   1.0000   1.0000   0.0000   0.0000
     0.0000   0.0000

          k =-0.5330 0.2176-0.0000 (  1647 PWs)   bands (ev):

   -17.1619 -17.1447 -17.0660 -17.0263 -17.0081 -16.9893 -16.9451 -16.9259
   -16.8525 -16.8379  -2.4420   0.5390   4.0903   4.7777  10.0046  10.6117
    12.8821  14.8905

     occupation numbers 
     1.0000   1.0000   1.0000   1.0000   1.0000   1.0000   1.0000   1.0000
     1.0000   1.0000   1.0000   1.0000   1.0000   1.0000   0.0000   0.0000
     0.0000   0.0000

          k =-0.4759 0.2720-0.0544 (  1639 PWs)   bands (ev):

   -17.1624 -17.1449 -17.0632 -17.0387 -17.0074 -16.9862 -16.9375 -16.9271
   -16.8532 -16.8380  -2.6944   0.7751   3.9646   5.2852  10.4992  11.2589
    12.1870  14.2383

     occupation numbers 
     1.0000   1.0000   1.0000   1.0000   1.0000   1.0000   1.0000   1.0000
     1.0000   1.0000   1.0000   1.0000   1.0000   1.0000   0.0000   0.0000
     0.0000   0.0000

          k =-0.4188 0.3264-0.1088 (  1639 PWs)   bands (ev):

   -17.1606 -17.1438 -17.0652 -17.0453 -17.0242 -16.9643 -16.9379 -16.9227
   -16.8553 -16.8403  -2.8409   0.7538   4.1678   5.8883   9.9146  11.2846
    12.9003  13.8819

     occupation numbers 
     1.0000   1.0000   1.0000   1.0000   1.0000   1.0000   1.0000   1.0000
     1.0000   1.0000   1.0000   1.0000   1.0000   1.0000   0.0000   0.0000
     0.0000   0.0000

          k =-0.3100 0.3264-0.1088 (  1634 PWs)   bands (ev):

   -17.1578 -17.1394 -17.0686 -17.0570 -17.0379 -16.9433 -16.9366 -16.9157
   -16.8614 -16.8441  -3.2955   1.3349   4.6416   6.4868   9.4376  11.5407
    12.0152  13.8866

     occupation numbers 
     1.0000   1.0000   1.0000   1.0000   1.0000   1.0000   1.0000   1.0000
     1.0000   1.0000   1.0000   1.0000   1.0000   1.0000   0.0000   0.0000
     0.0000   0.0000

          k =-0.2529 0.3807-0.1632 (  1636 PWs)   bands (ev):

   -17.1580 -17.1364 -17.0749 -17.0545 -17.0365 -16.9492 -16.9252 -16.9186
   -16.8642 -16.8439  -3.1872   1.0488   5.0444   6.1701   9.3325  11.1104
    12.1982  13.9721

     occupation numbers 
     1.0000   1.0000   1.0000   1.0000   1.0000   1.0000   1.0000   1.0000
     1.0000   1.0000   1.0000   1.0000   1.0000   1.0000   0.0000   0.0000
     0.0000   0.0000

          k =-0.1958 0.4351-0.2176 (  1636 PWs)   bands (ev):

   -17.1602 -17.1345 -17.0787 -17.0456 -17.0306 -16.9581 -16.9263 -16.9202
   -16.8650 -16.8409  -2.9639   0.7673   4.9080   5.8717   9.1943  11.3497
    12.4314  13.6419

     occupation numbers 
     1.0000   1.0000   1.0000   1.0000   1.0000   1.0000   1.0000   1.0000
     1.0000   1.0000   1.0000   1.0000   1.0000   1.0000   0.0000   0.0000
     0.0000   0.0000

          k =-0.1387 0.4895-0.2720 (  1639 PWs)   bands (ev):

   -17.1626 -17.1373 -17.0736 -17.0341 -17.0211 -16.9685 -16.9383 -16.9254
   -16.8605 -16.8372  -2.6375   0.4990   4.2565   5.6656   9.4596  11.3059
    13.0591  13.6406

     occupation numbers 
     1.0000   1.0000   1.0000   1.0000   1.0000   1.0000   1.0000   1.0000
     1.0000   1.0000   1.0000   1.0000   1.0000   1.0000   0.0000   0.0000
     0.0000   0.0000

          k =-0.0816 0.5439-0.3264 (  1637 PWs)   bands (ev):

   -17.1636 -17.1429 -17.0635 -17.0226 -17.0059 -16.9825 -16.9540 -16.9332
   -16.8539 -16.8348  -2.2237   0.1838   3.7392   5.2097  10.1869  11.1048
    13.1206  14.2828

     occupation numbers 
     1.0000   1.0000   1.0000   1.0000   1.0000   1.0000   1.0000   1.0000
     1.0000   1.0000   1.0000   1.0000   1.0000   1.0000   0.0000   0.0000
     0.0000   0.0000

          k =-0.0245 0.5983-0.3807 (  1641 PWs)   bands (ev):

   -17.1622 -17.1480 -17.0543 -17.0124 -16.9989 -16.9876 -16.9682 -16.9406
   -16.8483 -16.8352  -1.7435  -0.2492   3.5685   4.7253  10.3445  11.8327
    12.8395  13.2762

     occupation numbers 
     1.0000   1.0000   1.0000   1.0000   1.0000   1.0000   1.0000   1.0000
     1.0000   1.0000   1.0000   1.0000   1.0000   1.0000   0.0000   0.0000
     0.0000   0.0000

          k = 0.0326 0.6527-0.4351 (  1646 PWs)   bands (ev):

   -17.1580 -17.1518 -17.0479 -17.0279 -16.9912 -16.9833 -16.9649 -16.9473
   -16.8445 -16.8387  -1.2561  -0.7531   3.7650   4.3594  10.1486  11.3126
    13.2667  13.3491

     occupation numbers 
     1.0000   1.0000   1.0000   1.0000   1.0000   1.0000   1.0000   1.0000
     1.0000   1.0000   1.0000   1.0000   1.0000   1.0000   0.0000   0.0000
     0.0000   0.0000

          k =-0.4243 0.2176-0.0000 (  1640 PWs)   bands (ev):

   -17.1593 -17.1413 -17.0738 -17.0460 -17.0144 -16.9802 -16.9257 -16.9194
   -16.8584 -16.8421  -3.1423   1.4535   4.3080   5.5550  10.2928  10.8174
    12.1069  14.0219

     occupation numbers 
     1.0000   1.0000   1.0000   1.0000   1.0000   1.0000   1.0000   1.0000
     1.0000   1.0000   1.0000   1.0000   1.0000   1.0000   0.0000   0.0000
     0.0000   0.0000

          k =-0.3672 0.2720-0.0544 (  1628 PWs)   bands (ev):

   -17.1590 -17.1409 -17.0681 -17.0543 -17.0293 -16.9602 -16.9295 -16.9179
   -16.8596 -16.8426  -3.2816   1.5234   4.3183   6.1604  10.0763  11.1863
    12.5219  13.1815

     occupation numbers 
     1.0000   1.0000   1.0000   1.0000   1.0000   1.0000   1.0000   1.0000
     1.0000   1.0000   1.0000   1.0000   1.0000   1.0000   0.0000   0.0000
     0.0000   0.0000

          k =-0.2584 0.2720-0.0544 (  1617 PWs)   bands (ev):

   -17.1558 -17.1351 -17.0733 -17.0630 -17.0452 -16.9386 -16.9307 -16.9081
   -16.8677 -16.8467  -3.7353   2.2903   4.8531   6.8064   9.5913  11.5641
    11.6807  12.8655

     occupation numbers 
     1.0000   1.0000   1.0000   1.0000   1.0000   1.0000   1.0000   1.0000
     1.0000   1.0000   1.0000   1.0000   1.0000   1.0036   0.0000   0.0000
     0.0000   0.0000

          k =-0.2013 0.3264-0.1088 (  1626 PWs)   bands (ev):

   -17.1558 -17.1336 -17.0795 -17.0596 -17.0406 -16.9483 -16.9190 -16.9117
   -16.8687 -16.8468  -3.6329   1.9869   5.2012   6.3987   9.5134  10.9792
    12.1556  13.0828

     occupation numbers 
     1.0000   1.0000   1.0000   1.0000   1.0000   1.0000   1.0000   1.0000
     1.0000   1.0000   1.0000   1.0000   1.0000   1.0000   0.0000   0.0000
     0.0000   0.0000

          k =-0.1441 0.3807-0.1632 (  1635 PWs)   bands (ev):

   -17.1571 -17.1323 -17.0854 -17.0514 -17.0308 -16.9607 -16.9192 -16.9115
   -16.8690 -16.8448  -3.3993   1.5981   5.2111   5.8816   9.3039  11.1476
    12.5512  12.8146

     occupation numbers 
     1.0000   1.0000   1.0000   1.0000   1.0000   1.0000   1.0000   1.0000
     1.0000   1.0000   1.0000   1.0000   1.0000   1.0000   0.0000   0.0000
     0.0000   0.0000

          k =-0.0870 0.4351-0.2176 (  1634 PWs)   bands (ev):

   -17.1589 -17.1352 -17.0820 -17.0414 -17.0189 -16.9724 -16.9289 -16.9169
   -16.8637 -16.8416  -3.0428   1.1684   4.5179   5.7244   9.4604  11.2045
    12.3709  13.4486

     occupation numbers 
     1.0000   1.0000   1.0000   1.0000   1.0000   1.0000   1.0000   1.0000
     1.0000   1.0000   1.0000   1.0000   1.0000   1.0000   0.0000   0.0000
     0.0000   0.0000

          k =-0.0299 0.4895-0.2720 (  1642 PWs)   bands (ev):

   -17.1600 -17.1415 -17.0709 -17.0311 -17.0058 -16.9834 -16.9421 -16.9285
   -16.8558 -16.8390  -2.5808   0.6677   3.9270   5.3480  10.1679  11.0699
    12.0693  14.4714

     occupation numbers 
     1.0000   1.0000   1.0000   1.0000   1.0000   1.0000   1.0000   1.0000
     1.0000   1.0000   1.0000   1.0000   1.0000   1.0000   0.0000   0.0000
     0.0000   0.0000

          k = 0.0272 0.5439-0.3264 (  1643 PWs)   bands (ev):

   -17.1597 -17.1473 -17.0594 -17.0210 -16.9955 -16.9902 -16.9582 -16.9378
   -16.8492 -16.8381  -2.0546   0.0918   3.6407   4.9253  10.5397  11.5083
    12.0373  14.3132

     occupation numbers 
     1.0000   1.0000   1.0000   1.0000   1.0000   1.0000   1.0000   1.0000
     1.0000   1.0000   1.0000   1.0000   1.0000   1.0000   0.0000   0.0000
     0.0000   0.0000

          k = 0.0843 0.5983-0.3807 (  1646 PWs)   bands (ev):

   -17.1575 -17.1513 -17.0536 -17.0189 -16.9920 -16.9895 -16.9652 -16.9431
   -16.8451 -16.8395  -1.6272  -0.3781   3.6502   4.6254  10.3793  11.8254
    12.8953  13.0452

     occupation numbers 
     1.0000   1.0000   1.0000   1.0000   1.0000   1.0000   1.0000   1.0000
     1.0000   1.0000   1.0000   1.0000   1.0000   1.0000   0.0000   0.0000
     0.0000   0.0000

          k =-0.6010-0.0544 0.2720 (  1648 PWs)   bands (ev):

   -17.1538 -17.1526 -17.0588 -17.0211 -17.0014 -16.9814 -16.9608 -16.9388
   -16.8440 -16.8432  -1.7848  -0.2126   3.8435   4.5673  10.2519  11.2523
    12.2337  14.4055

     occupation numbers 
     1.0000   1.0000   1.0000   1.0000   1.0000   1.0000   1.0000   1.0000
     1.0000   1.0000   1.0000   1.0000   1.0000   1.0000   0.0000   0.0000
     0.0000   0.0000

          k =-0.3155 0.2176-0.0000 (  1620 PWs)   bands (ev):

   -17.1560 -17.1356 -17.0769 -17.0605 -17.0377 -16.9533 -16.9203 -16.9100
   -16.8670 -16.8464  -3.7028   2.3531   4.7384   6.4633  10.1658  10.7248
    12.3475  12.6193

     occupation numbers 
     1.0000   1.0000   1.0000   1.0000   1.0000   1.0000   1.0000   1.0000
     1.0000   1.0000   1.0000   1.0000   1.0000   1.0000   0.0000   0.0000
     0.0000   0.0000

          k =-0.2067 0.2176-0.0000 (  1631 PWs)   bands (ev):

   -17.1524 -17.1290 -17.0819 -17.0664 -17.0549 -16.9335 -16.9219 -16.8997
   -16.8764 -16.8512  -4.1060   3.2490   5.3459   7.1150   9.6072  11.1551
    11.2758  12.3125

     occupation numbers 
     1.0000   1.0000   1.0000   1.0000   1.0000   1.0000   1.0000   1.0000
     1.0000   1.0000   1.0000   1.0000   1.0000   1.0722   0.0000   0.0000
     0.0000   0.0000

          k =-0.1496 0.2720-0.0544 (  1631 PWs)   bands (ev):

   -17.1522 -17.1290 -17.0862 -17.0652 -17.0476 -16.9441 -16.9122 -16.9031
   -16.8756 -16.8514  -4.0356   3.0611   5.5081   6.6805   9.7247  10.5292
    12.0019  12.4018

     occupation numbers 
     1.0000   1.0000   1.0000   1.0000   1.0000   1.0000   1.0000   1.0000
     1.0000   1.0000   1.0000   1.0000   1.0000   1.0004   0.0000   0.0000
     0.0000   0.0000

          k =-0.0925 0.3264-0.1088 (  1644 PWs)   bands (ev):

   -17.1523 -17.1290 -17.0932 -17.0582 -17.0350 -16.9582 -16.9118 -16.9021
   -16.8743 -16.8509  -3.8270   2.6187   5.6097   6.0033   9.3904  10.6652
    12.4408  12.5644

     occupation numbers 
     1.0000   1.0000   1.0000   1.0000   1.0000   1.0000   1.0000   1.0000
     1.0000   1.0000   1.0000   1.0000   1.0000   1.0000   0.0000   0.0000
     0.0000   0.0000

          k =-0.0354 0.3807-0.1632 (  1640 PWs)   bands (ev):

   -17.1530 -17.1320 -17.0929 -17.0485 -17.0222 -16.9706 -16.9214 -16.9043
   -16.8687 -16.8488  -3.4868   2.0359   4.9185   5.8861   9.4471  10.6205
    12.2764  13.2440

     occupation numbers 
     1.0000   1.0000   1.0000   1.0000   1.0000   1.0000   1.0000   1.0000
     1.0000   1.0000   1.0000   1.0000   1.0000   1.0000   0.0000   0.0000
     0.0000   0.0000

          k = 0.0218 0.4351-0.2176 (  1645 PWs)   bands (ev):

   -17.1536 -17.1387 -17.0840 -17.0388 -17.0111 -16.9796 -16.9319 -16.9161
   -16.8596 -16.8465  -3.0309   1.3351   4.3291   5.5826  10.0920  10.4601
    11.9409  13.9357

     occupation numbers 
     1.0000   1.0000   1.0000   1.0000   1.0000   1.0000   1.0000   1.0000
     1.0000   1.0000   1.0000   1.0000   1.0000   1.0000   0.0000   0.0000
     0.0000   0.0000

          k = 0.0789 0.4895-0.2720 (  1647 PWs)   bands (ev):

   -17.1534 -17.1454 -17.0726 -17.0304 -17.0046 -16.9824 -16.9436 -16.9284
   -16.8518 -16.8451  -2.5017   0.5846   3.9926   5.2338  10.3155  10.8649
    11.9634  14.1499

     occupation numbers 
     1.0000   1.0000   1.0000   1.0000   1.0000   1.0000   1.0000   1.0000
     1.0000   1.0000   1.0000   1.0000   1.0000   1.0000   0.0000   0.0000
     0.0000   0.0000

          k = 0.1360 0.5439-0.3264 (  1648 PWs)   bands (ev):

   -17.1525 -17.1500 -17.0648 -17.0253 -17.0023 -16.9805 -16.9537 -16.9357
   -16.8469 -16.8450  -2.0438  -0.0068   3.8572   5.0156  10.2543  11.0298
    12.8790  13.9348

     occupation numbers 
     1.0000   1.0000   1.0000   1.0000   1.0000   1.0000   1.0000   1.0000
     1.0000   1.0000   1.0000   1.0000   1.0000   1.0000   0.0000   0.0000
     0.0000   0.0000

          k =-0.5494-0.1088 0.3264 (  1647 PWs)   bands (ev):

   -17.1527 -17.1499 -17.0649 -17.0253 -17.0023 -16.9805 -16.9536 -16.9356
   -16.8470 -16.8448  -2.0449  -0.0063   3.8597   5.0137  10.2559  11.0290
    12.8893  13.9315

     occupation numbers 
     1.0000   1.0000   1.0000   1.0000   1.0000   1.0000   1.0000   1.0000
     1.0000   1.0000   1.0000   1.0000   1.0000   1.0000   0.0000   0.0000
     0.0000   0.0000

          k =-0.4923-0.0544 0.2720 (  1646 PWs)   bands (ev):

   -17.1536 -17.1454 -17.0728 -17.0305 -17.0045 -16.9825 -16.9437 -16.9282
   -16.8518 -16.8449  -2.5038   0.5849   3.9988   5.2295  10.3198  10.8677
    11.9671  14.1514

     occupation numbers 
     1.0000   1.0000   1.0000   1.0000   1.0000   1.0000   1.0000   1.0000
     1.0000   1.0000   1.0000   1.0000   1.0000   1.0000   0.0000   0.0000
     0.0000   0.0000

          k =-0.0979 0.2176 0.0000 (  1642 PWs)   bands (ev):

   -17.1478 -17.1236 -17.0921 -17.0711 -17.0559 -16.9375 -16.9047 -16.8958
   -16.8838 -16.8572  -4.3409   4.0941   6.0430   6.9181   9.8296   9.9700
    11.6179  11.7709

     occupation numbers 
     1.0000   1.0000   1.0000   1.0000   1.0000   1.0000   1.0000   1.0000
     1.0000   1.0000   1.0000   1.0000   1.0000   1.0152   0.0000   0.0000
     0.0000   0.0000

          k =-0.0408 0.2720-0.0544 (  1645 PWs)   bands (ev):

   -17.1467 -17.1251 -17.0999 -17.0650 -17.0422 -16.9517 -16.9045 -16.8939
   -16.8806 -16.8581  -4.1709   3.6756   6.0662   6.2300   9.3031  10.2622
    12.1578  12.2876

     occupation numbers 
     1.0000   1.0000   1.0000   1.0000   1.0000   1.0000   1.0000   1.0000
     1.0000   1.0000   1.0000   1.0000   1.0000   1.0000   0.0000   0.0000
     0.0000   0.0000

          k = 0.0163 0.3264-0.1088 (  1647 PWs)   bands (ev):

   -17.1458 -17.1284 -17.1034 -17.0552 -17.0291 -16.9642 -16.9148 -16.8922
   -16.8746 -16.8576  -3.8643   2.9199   5.4685   6.0903   9.2686  10.1682
    12.3834  12.8218

     occupation numbers 
     1.0000   1.0000   1.0000   1.0000   1.0000   1.0000   1.0000   1.0000
     1.0000   1.0000   1.0000   1.0000   1.0000   1.0000   0.0000   0.0000
     0.0000   0.0000

          k = 0.0734 0.3807-0.1632 (  1654 PWs)   bands (ev):

   -17.1455 -17.1346 -17.0986 -17.0451 -17.0191 -16.9724 -16.9254 -16.9007
   -16.8656 -16.8554  -3.4342   1.9957   4.9608   5.8111   9.5685  10.2091
    12.1820  13.1948

     occupation numbers 
     1.0000   1.0000   1.0000   1.0000   1.0000   1.0000   1.0000   1.0000
     1.0000   1.0000   1.0000   1.0000   1.0000   1.0000   0.0000   0.0000
     0.0000   0.0000

          k = 0.1305 0.4351-0.2176 (  1657 PWs)   bands (ev):

   -17.1458 -17.1411 -17.0892 -17.0364 -17.0147 -16.9739 -16.9355 -16.9125
   -16.8581 -16.8526  -2.9154   1.0581   4.5986   5.5432   9.5129  10.7806
    12.2260  13.2490

     occupation numbers 
     1.0000   1.0000   1.0000   1.0000   1.0000   1.0000   1.0000   1.0000
     1.0000   1.0000   1.0000   1.0000   1.0000   1.0000   0.0000   0.0000
     0.0000   0.0000

          k = 0.1877 0.4895-0.2720 (  1649 PWs)   bands (ev):

   -17.1481 -17.1439 -17.0802 -17.0307 -17.0145 -16.9694 -16.9445 -16.9230
   -16.8543 -16.8492  -2.4164   0.2995   4.3371   5.4309   9.4325  11.0561
    12.7168  13.4372

     occupation numbers 
     1.0000   1.0000   1.0000   1.0000   1.0000   1.0000   1.0000   1.0000
     1.0000   1.0000   1.0000   1.0000   1.0000   1.0000   0.0000   0.0000
     0.0000   0.0000

          k =-0.4977-0.1632 0.3807 (  1647 PWs)   bands (ev):

   -17.1512 -17.1433 -17.0751 -17.0312 -17.0145 -16.9644 -16.9480 -16.9292
   -16.8539 -16.8466  -2.2509   0.0741   4.1766   5.5038   9.4394  11.1093
    12.7316  14.3530

     occupation numbers 
     1.0000   1.0000   1.0000   1.0000   1.0000   1.0000   1.0000   1.0000
     1.0000   1.0000   1.0000   1.0000   1.0000   1.0000   0.0000   0.0000
     0.0000   0.0000

          k =-0.4406-0.1088 0.3264 (  1651 PWs)   bands (ev):

   -17.1527 -17.1410 -17.0762 -17.0372 -17.0154 -16.9645 -16.9393 -16.9300
   -16.8561 -16.8460  -2.6041   0.5704   4.1568   5.7342   9.5337  11.1451
    12.5051  13.7954

     occupation numbers 
     1.0000   1.0000   1.0000   1.0000   1.0000   1.0000   1.0000   1.0000
     1.0000   1.0000   1.0000   1.0000   1.0000   1.0000   0.0000   0.0000
     0.0000   0.0000

          k =-0.3835-0.0544 0.2720 (  1652 PWs)   bands (ev):

   -17.1528 -17.1366 -17.0829 -17.0448 -17.0212 -16.9622 -16.9294 -16.9220
   -16.8614 -16.8473  -3.1327   1.4070   4.3391   6.0729   9.6778  10.9996
    12.2047  13.1067

     occupation numbers 
     1.0000   1.0000   1.0000   1.0000   1.0000   1.0000   1.0000   1.0000
     1.0000   1.0000   1.0000   1.0000   1.0000   1.0000   0.0000   0.0000
     0.0000   0.0000

          k = 0.0163 0.3264-0.0000 (  1651 PWs)   bands (ev):

   -17.1425 -17.1284 -17.1082 -17.0564 -17.0266 -16.9684 -16.9123 -16.8840
   -16.8760 -16.8630  -3.9469   3.2116   5.8498   5.8536   8.7299  10.2154
    12.8606  12.9091

     occupation numbers 
     1.0000   1.0000   1.0000   1.0000   1.0000   1.0000   1.0000   1.0000
     1.0000   1.0000   1.0000   1.0000   1.0000   1.0000   0.0000   0.0000
     0.0000   0.0000

          k = 0.0734 0.3807-0.0544 (  1646 PWs)   bands (ev):

   -17.1386 -17.1330 -17.1110 -17.0456 -17.0132 -16.9816 -16.9230 -16.8834
   -16.8691 -16.8646  -3.5902   2.3974   5.4950   5.5722   8.7351  10.0036
    12.8585  13.3806

     occupation numbers 
     1.0000   1.0000   1.0000   1.0000   1.0000   1.0000   1.0000   1.0000
     1.0000   1.0000   1.0000   1.0000   1.0000   1.0000   0.0000   0.0000
     0.0000   0.0000

          k = 0.1305 0.4351-0.1088 (  1654 PWs)   bands (ev):

   -17.1421 -17.1360 -17.1037 -17.0348 -17.0071 -16.9862 -16.9342 -16.8955
   -16.8637 -16.8569  -3.1190   1.4834   4.9447   5.4069   8.9630  10.2390
    12.6002  13.5285

     occupation numbers 
     1.0000   1.0000   1.0000   1.0000   1.0000   1.0000   1.0000   1.0000
     1.0000   1.0000   1.0000   1.0000   1.0000   1.0000   0.0000   0.0000
     0.0000   0.0000

          k = 0.1877 0.4895-0.1632 (  1653 PWs)   bands (ev):

   -17.1494 -17.1374 -17.0912 -17.0251 -17.0099 -16.9811 -16.9451 -16.9105
   -16.8600 -16.8485  -2.5850   0.6263   4.4162   5.3726   8.9701  11.0764
    12.5098  13.3930

     occupation numbers 
     1.0000   1.0000   1.0000   1.0000   1.0000   1.0000   1.0000   1.0000
     1.0000   1.0000   1.0000   1.0000   1.0000   1.0000   0.0000   0.0000
     0.0000   0.0000

          k =-0.4977-0.1632 0.4895 (  1650 PWs)   bands (ev):

   -17.1554 -17.1384 -17.0797 -17.0194 -17.0129 -16.9732 -16.9550 -16.9230
   -16.8577 -16.8423  -2.1632   0.0486   4.0223   5.4680   8.9809  11.7065
    13.0350  13.1929

     occupation numbers 
     1.0000   1.0000   1.0000   1.0000   1.0000   1.0000   1.0000   1.0000
     1.0000   1.0000   1.0000   1.0000   1.0000   1.0000   0.0000   0.0000
     0.0000   0.0000

          k =-0.4406-0.1088 0.4351 (  1646 PWs)   bands (ev):

   -17.1589 -17.1385 -17.0730 -17.0262 -17.0111 -16.9635 -16.9592 -16.9301
   -16.8573 -16.8394  -2.2299   0.1389   3.8151   5.6853   9.0834  11.8660
    12.8568  14.3203

     occupation numbers 
     1.0000   1.0000   1.0000   1.0000   1.0000   1.0000   1.0000   1.0000
     1.0000   1.0000   1.0000   1.0000   1.0000   1.0000   0.0000   0.0000
     0.0000   0.0000

          k =-0.3835-0.0544 0.3807 (  1648 PWs)   bands (ev):

   -17.1595 -17.1370 -17.0726 -17.0381 -17.0156 -16.9602 -16.9449 -16.9317
   -16.8593 -16.8398  -2.7014   0.7840   3.8497   6.0059   9.2591  11.9896
    12.5144  13.7441

     occupation numbers 
     1.0000   1.0000   1.0000   1.0000   1.0000   1.0000   1.0000   1.0000
     1.0000   1.0000   1.0000   1.0000   1.0000   1.0000   0.0000   0.0000
     0.0000   0.0000

          k =-0.3264 0.0000 0.3264 (  1646 PWs)   bands (ev):

   -17.1577 -17.1335 -17.0790 -17.0484 -17.0268 -16.9513 -16.9338 -16.9236
   -16.8640 -16.8432  -3.2251   1.5467   4.2148   6.3923   9.4089  11.9128
    12.1352  12.7302

     occupation numbers 
     1.0000   1.0000   1.0000   1.0000   1.0000   1.0000   1.0000   1.0000
     1.0000   1.0000   1.0000   1.0000   1.0000   1.0000   0.0000   0.0000
     0.0000   0.0000

          k = 0.1251 0.3264-0.0000 (  1646 PWs)   bands (ev):

   -17.1320 -17.1308 -17.1171 -17.0515 -17.0235 -16.9683 -16.9194 -16.8778
   -16.8727 -16.8718  -3.8217   2.8699   5.5628   6.0827   9.1502   9.8890
    12.4067  12.6039

     occupation numbers 
     1.0000   1.0000   1.0000   1.0000   1.0000   1.0000   1.0000   1.0000
     1.0000   1.0000   1.0000   1.0000   1.0000   1.0000   0.0000   0.0000
     0.0000   0.0000

          k = 0.1822 0.3807-0.0544 (  1655 PWs)   bands (ev):

   -17.1403 -17.1290 -17.1115 -17.0412 -17.0134 -16.9769 -16.9296 -16.8917
   -16.8676 -16.8605  -3.3852   1.9305   5.0080   5.8456   9.3612  10.1159
    12.1566  13.0443

     occupation numbers 
     1.0000   1.0000   1.0000   1.0000   1.0000   1.0000   1.0000   1.0000
     1.0000   1.0000   1.0000   1.0000   1.0000   1.0000   0.0000   0.0000
     0.0000   0.0000

          k = 0.2393 0.4351-0.1088 (  1648 PWs)   bands (ev):

   -17.1487 -17.1310 -17.0985 -17.0313 -17.0118 -16.9764 -16.9396 -16.9072
   -16.8643 -16.8504  -2.8629   0.9991   4.5734   5.6272   9.3069  10.7370
    12.1758  13.2229

     occupation numbers 
     1.0000   1.0000   1.0000   1.0000   1.0000   1.0000   1.0000   1.0000
     1.0000   1.0000   1.0000   1.0000   1.0000   1.0000   0.0000   0.0000
     0.0000   0.0000

          k =-0.4460-0.2176 0.5439 (  1645 PWs)   bands (ev):

   -17.1555 -17.1323 -17.0864 -17.0222 -17.0172 -16.9684 -16.9500 -16.9202
   -16.8626 -16.8428  -2.3709   0.2625   4.2626   5.5313   9.2625  10.9777
    12.7272  13.4775

     occupation numbers 
     1.0000   1.0000   1.0000   1.0000   1.0000   1.0000   1.0000   1.0000
     1.0000   1.0000   1.0000   1.0000   1.0000   1.0000   0.0000   0.0000
     0.0000   0.0000

          k =-0.3889-0.1632 0.4895 (  1647 PWs)   bands (ev):

   -17.1597 -17.1325 -17.0789 -17.0261 -17.0151 -16.9611 -16.9552 -16.9276
   -16.8625 -16.8386  -2.2357   0.0805   4.0890   5.5814   9.3024  10.9990
    12.8920  14.4773

     occupation numbers 
     1.0000   1.0000   1.0000   1.0000   1.0000   1.0000   1.0000   1.0000
     1.0000   1.0000   1.0000   1.0000   1.0000   1.0000   0.0000   0.0000
     0.0000   0.0000

          k =-0.3318-0.1088 0.4351 (  1648 PWs)   bands (ev):

   -17.1609 -17.1316 -17.0778 -17.0362 -17.0147 -16.9645 -16.9409 -16.9295
   -16.8642 -16.8382  -2.6103   0.6038   4.0832   5.7681   9.4191  11.0468
    12.8307  14.0790

     occupation numbers 
     1.0000   1.0000   1.0000   1.0000   1.0000   1.0000   1.0000   1.0000
     1.0000   1.0000   1.0000   1.0000   1.0000   1.0000   0.0000   0.0000
     0.0000   0.0000

          k =-0.2747-0.0544 0.3807 (  1647 PWs)   bands (ev):

   -17.1592 -17.1294 -17.0832 -17.0454 -17.0223 -16.9605 -16.9285 -16.9233
   -16.8676 -16.8413  -3.1402   1.4329   4.3007   6.0636   9.5768  11.0542
    12.5667  13.0517

     occupation numbers 
     1.0000   1.0000   1.0000   1.0000   1.0000   1.0000   1.0000   1.0000
     1.0000   1.0000   1.0000   1.0000   1.0000   1.0000   0.0000   0.0000
     0.0000   0.0000

          k =-0.2176 0.0000 0.3264 (  1641 PWs)   bands (ev):

   -17.1551 -17.1266 -17.0916 -17.0527 -17.0342 -16.9519 -16.9236 -16.9084
   -16.8720 -16.8473  -3.6236   2.2716   4.8242   6.4131   9.6932  10.6408
    12.3350  12.4533

     occupation numbers 
     1.0000   1.0000   1.0000   1.0000   1.0000   1.0000   1.0000   1.0000
     1.0000   1.0000   1.0000   1.0000   1.0000   1.0000   0.0000   0.0000
     0.0000   0.0000

          k = 0.2339 0.3264-0.0000 (  1656 PWs)   bands (ev):

   -17.1401 -17.1257 -17.1126 -17.0457 -17.0206 -16.9650 -16.9287 -16.8955
   -16.8667 -16.8622  -3.5336   2.1896   4.8885   6.4092   9.4482  10.3312
    12.2389  12.2659

     occupation numbers 
     1.0000   1.0000   1.0000   1.0000   1.0000   1.0000   1.0000   1.0000
     1.0000   1.0000   1.0000   1.0000   1.0000   1.0000   0.0000   0.0000
     0.0000   0.0000

          k = 0.2910 0.3807-0.0544 (  1655 PWs)   bands (ev):

   -17.1494 -17.1283 -17.0990 -17.0366 -17.0126 -16.9704 -16.9368 -16.9120
   -16.8642 -16.8508  -3.0350   1.2964   4.3884   6.0678   9.4344  10.8665
    12.2005  12.8425

     occupation numbers 
     1.0000   1.0000   1.0000   1.0000   1.0000   1.0000   1.0000   1.0000
     1.0000   1.0000   1.0000   1.0000   1.0000   1.0000   0.0000   0.0000
     0.0000   0.0000

          k =-0.3943-0.2720 0.5983 (  1647 PWs)   bands (ev):

   -17.1571 -17.1290 -17.0875 -17.0269 -17.0135 -16.9666 -16.9468 -16.9251
   -16.8638 -16.8418  -2.5095   0.4813   4.1417   5.7488   9.3220  11.0615
    12.5293  13.6297

     occupation numbers 
     1.0000   1.0000   1.0000   1.0000   1.0000   1.0000   1.0000   1.0000
     1.0000   1.0000   1.0000   1.0000   1.0000   1.0000   0.0000   0.0000
     0.0000   0.0000

          k =-0.3372-0.2176 0.5439 (  1646 PWs)   bands (ev):

   -17.1620 -17.1280 -17.0816 -17.0219 -17.0157 -16.9626 -16.9549 -16.9289
   -16.8652 -16.8365  -2.2007   0.0547   4.0945   5.5284   9.2359  11.1039
    12.7905  14.6673

     occupation numbers 
     1.0000   1.0000   1.0000   1.0000   1.0000   1.0000   1.0000   1.0000
     1.0000   1.0000   1.0000   1.0000   1.0000   1.0000   0.0000   0.0000
     0.0000   0.0000

          k =-0.2801-0.1632 0.4895 (  1646 PWs)   bands (ev):

   -17.1636 -17.1260 -17.0827 -17.0299 -17.0109 -16.9725 -16.9438 -16.9250
   -16.8682 -16.8352  -2.4275   0.3603   4.2130   5.4460   9.2166  11.1959
    12.9336  13.8445

     occupation numbers 
     1.0000   1.0000   1.0000   1.0000   1.0000   1.0000   1.0000   1.0000
     1.0000   1.0000   1.0000   1.0000   1.0000   1.0000   0.0000   0.0000
     0.0000   0.0000

          k =-0.2230-0.1088 0.4351 (  1647 PWs)   bands (ev):

   -17.1620 -17.1234 -17.0898 -17.0385 -17.0142 -16.9738 -16.9328 -16.9147
   -16.8725 -16.8380  -2.9407   1.1349   4.4838   5.5219   9.2701  11.2317
    12.5114  13.2646

     occupation numbers 
     1.0000   1.0000   1.0000   1.0000   1.0000   1.0000   1.0000   1.0000
     1.0000   1.0000   1.0000   1.0000   1.0000   1.0000   0.0000   0.0000
     0.0000   0.0000

          k =-0.1659-0.0544 0.3807 (  1642 PWs)   bands (ev):

   -17.1576 -17.1210 -17.0991 -17.0468 -17.0234 -16.9680 -16.9235 -16.9018
   -16.8769 -16.8443  -3.4524   2.0398   4.9099   5.7535   9.3409  10.7535
    12.2573  13.1550

     occupation numbers 
     1.0000   1.0000   1.0000   1.0000   1.0000   1.0000   1.0000   1.0000
     1.0000   1.0000   1.0000   1.0000   1.0000   1.0000   0.0000   0.0000
     0.0000   0.0000

          k =-0.1088 0.0000 0.3264 (  1644 PWs)   bands (ev):

   -17.1519 -17.1213 -17.1036 -17.0552 -17.0345 -16.9585 -16.9145 -16.8960
   -16.8766 -16.8531  -3.8694   2.9017   5.4819   6.0851   9.2573  10.2545
    12.3963  12.8033

     occupation numbers 
     1.0000   1.0000   1.0000   1.0000   1.0000   1.0000   1.0000   1.0000
     1.0000   1.0000   1.0000   1.0000   1.0000   1.0000   0.0000   0.0000
     0.0000   0.0000

          k = 0.0000 0.0000 0.3264 (  1636 PWs)   bands (ev):

   -17.1500 -17.1200 -17.1079 -17.0564 -17.0336 -16.9614 -16.9112 -16.8933
   -16.8745 -16.8574  -3.9524   3.1871   5.6767   6.0547   8.7308  10.2657
    12.7895  13.0377

     occupation numbers 
     1.0000   1.0000   1.0000   1.0000   1.0000   1.0000   1.0000   1.0000
     1.0000   1.0000   1.0000   1.0000   1.0000   1.0000   0.0000   0.0000
     0.0000   0.0000

          k = 0.3427 0.3264-0.0000 (  1646 PWs)   bands (ev):

   -17.1500 -17.1276 -17.0983 -17.0386 -17.0128 -16.9673 -16.9363 -16.9149
   -16.8638 -16.8505  -3.0935   1.4182   4.2619   6.3239   9.1926  11.7058
    12.0190  12.4261

     occupation numbers 
     1.0000   1.0000   1.0000   1.0000   1.0000   1.0000   1.0000   1.0000
     1.0000   1.0000   1.0000   1.0000   1.0000   1.0000   0.0000   0.0000
     0.0000   0.0000

          k =-0.3427-0.3264 0.6527 (  1642 PWs)   bands (ev):

   -17.1587 -17.1286 -17.0860 -17.0280 -17.0069 -16.9705 -16.9461 -16.9299
   -16.8630 -16.8403  -2.5629   0.6417   3.8860   5.9289   9.1053  12.0698
    12.2821  13.3137

     occupation numbers 
     1.0000   1.0000   1.0000   1.0000   1.0000   1.0000   1.0000   1.0000
     1.0000   1.0000   1.0000   1.0000   1.0000   1.0000   0.0000   0.0000
     0.0000   0.0000

          k =-0.2856-0.2720 0.5983 (  1643 PWs)   bands (ev):

   -17.1645 -17.1276 -17.0800 -17.0152 -17.0114 -16.9644 -16.9632 -16.9323
   -16.8644 -16.8339  -2.1283   0.0589   3.8065   5.5933   8.9518  11.9993
    12.7129  14.5707

     occupation numbers 
     1.0000   1.0000   1.0000   1.0000   1.0000   1.0000   1.0000   1.0000
     1.0000   1.0000   1.0000   1.0000   1.0000   1.0000   0.0000   0.0000
     0.0000   0.0000

          k =-0.2284-0.2176 0.5439 (  1646 PWs)   bands (ev):

   -17.1667 -17.1250 -17.0815 -17.0202 -17.0048 -16.9805 -16.9520 -16.9267
   -16.8676 -16.8319  -2.1667   0.1024   3.9678   5.3585   8.8521  12.0216
    13.0576  13.6167

     occupation numbers 
     1.0000   1.0000   1.0000   1.0000   1.0000   1.0000   1.0000   1.0000
     1.0000   1.0000   1.0000   1.0000   1.0000   1.0000   0.0000   0.0000
     0.0000   0.0000

          k =-0.1713-0.1632 0.4895 (  1649 PWs)   bands (ev):

   -17.1652 -17.1216 -17.0899 -17.0294 -17.0056 -16.9847 -16.9407 -16.9145
   -16.8725 -16.8343  -2.6346   0.7396   4.3398   5.2449   8.8383  11.7497
    12.6869  13.3467

     occupation numbers 
     1.0000   1.0000   1.0000   1.0000   1.0000   1.0000   1.0000   1.0000
     1.0000   1.0000   1.0000   1.0000   1.0000   1.0000   0.0000   0.0000
     0.0000   0.0000

          k =-0.1142-0.1088 0.4351 (  1646 PWs)   bands (ev):

   -17.1607 -17.1174 -17.1022 -17.0385 -17.0135 -16.9803 -16.9301 -16.8986
   -16.8786 -16.8405  -3.1646   1.5785   4.8970   5.2614   8.8637  10.8147
    12.7958  13.4944

     occupation numbers 
     1.0000   1.0000   1.0000   1.0000   1.0000   1.0000   1.0000   1.0000
     1.0000   1.0000   1.0000   1.0000   1.0000   1.0000   0.0000   0.0000
     0.0000   0.0000

          k =-0.0571-0.0544 0.3807 (  1647 PWs)   bands (ev):

   -17.1546 -17.1139 -17.1128 -17.0477 -17.0229 -16.9726 -16.9201 -16.8858
   -16.8835 -16.8494  -3.6178   2.4319   5.4084   5.5569   8.7651  10.2670
    13.1032  13.3270

     occupation numbers 
     1.0000   1.0000   1.0000   1.0000   1.0000   1.0000   1.0000   1.0000
     1.0000   1.0000   1.0000   1.0000   1.0000   1.0000   0.0000   0.0000
     0.0000   0.0000

          k = 0.0517-0.0544 0.3807 (  1649 PWs)   bands (ev):

   -17.1530 -17.1229 -17.1059 -17.0479 -17.0247 -16.9714 -16.9195 -16.8922
   -16.8735 -16.8524  -3.6277   2.3955   5.3098   5.8025   8.7798  10.1111
    12.9997  13.5150

     occupation numbers 
     1.0000   1.0000   1.0000   1.0000   1.0000   1.0000   1.0000   1.0000
     1.0000   1.0000   1.0000   1.0000   1.0000   1.0000   0.0000   0.0000
     0.0000   0.0000

          k =-0.2910-0.3807 0.7071 (  1647 PWs)   bands (ev):

   -17.1590 -17.1307 -17.0844 -17.0259 -16.9996 -16.9806 -16.9477 -16.9285
   -16.8616 -16.8399  -2.5219   0.6450   3.8245   5.6864   9.5074  11.5937
    12.2132  13.5355

     occupation numbers 
     1.0000   1.0000   1.0000   1.0000   1.0000   1.0000   1.0000   1.0000
     1.0000   1.0000   1.0000   1.0000   1.0000   1.0000   0.0000   0.0000
     0.0000   0.0000

          k =-0.2339-0.3264 0.6527 (  1647 PWs)   bands (ev):

   -17.1658 -17.1311 -17.0745 -17.0120 -16.9990 -16.9789 -16.9659 -16.9357
   -16.8613 -16.8324  -2.0140   0.0273   3.6021   5.3344   9.3234  11.9413
    12.9999  14.1565

     occupation numbers 
     1.0000   1.0000   1.0000   1.0000   1.0000   1.0000   1.0000   1.0000
     1.0000   1.0000   1.0000   1.0000   1.0000   1.0000   0.0000   0.0000
     0.0000   0.0000

          k =-0.1768-0.2720 0.5983 (  1648 PWs)   bands (ev):

   -17.1688 -17.1300 -17.0722 -17.0101 -16.9967 -16.9880 -16.9637 -16.9345
   -16.8627 -16.8294  -1.8468  -0.1740   3.6764   5.0879   9.1426  12.0862
    13.4352  13.8827

     occupation numbers 
     1.0000   1.0000   1.0000   1.0000   1.0000   1.0000   1.0000   1.0000
     1.0000   1.0000   1.0000   1.0000   1.0000   1.0000   0.0000   0.0000
     0.0000   0.0000

          k =-0.1197-0.2176 0.5439 (  1648 PWs)   bands (ev):

   -17.1678 -17.1280 -17.0782 -17.0197 -17.0046 -16.9857 -16.9510 -16.9251
   -16.8657 -16.8311  -2.2385   0.2895   3.9909   4.9891   9.0426  11.8082
    12.5417  14.2761

     occupation numbers 
     1.0000   1.0000   1.0000   1.0000   1.0000   1.0000   1.0000   1.0000
     1.0000   1.0000   1.0000   1.0000   1.0000   1.0000   0.0000   0.0000
     0.0000   0.0000

          k =-0.0626-0.1632 0.4895 (  1652 PWs)   bands (ev):

   -17.1634 -17.1255 -17.0903 -17.0295 -17.0114 -16.9831 -16.9391 -16.9097
   -16.8699 -16.8369  -2.7757   0.9994   4.4676   5.0825   9.0039  10.6910
    12.7914  14.4102

     occupation numbers 
     1.0000   1.0000   1.0000   1.0000   1.0000   1.0000   1.0000   1.0000
     1.0000   1.0000   1.0000   1.0000   1.0000   1.0000   0.0000   0.0000
     0.0000   0.0000

          k =-0.0054-0.1088 0.4351 (  1648 PWs)   bands (ev):

   -17.1575 -17.1234 -17.1019 -17.0389 -17.0168 -16.9796 -16.9286 -16.8955
   -16.8737 -16.8452  -3.2567   1.7304   4.9329   5.4296   8.8638  10.0717
    13.0964  14.1246

     occupation numbers 
     1.0000   1.0000   1.0000   1.0000   1.0000   1.0000   1.0000   1.0000
     1.0000   1.0000   1.0000   1.0000   1.0000   1.0000   0.0000   0.0000
     0.0000   0.0000

          k = 0.1033-0.1088 0.4351 (  1643 PWs)   bands (ev):

   -17.1558 -17.1309 -17.0957 -17.0389 -17.0212 -16.9752 -16.9288 -16.9008
   -16.8661 -16.8476  -3.2108   1.5150   4.8456   5.6512   9.1176  10.1995
    12.8225  13.6796

     occupation numbers 
     1.0000   1.0000   1.0000   1.0000   1.0000   1.0000   1.0000   1.0000
     1.0000   1.0000   1.0000   1.0000   1.0000   1.0000   0.0000   0.0000
     0.0000   0.0000

          k = 0.1605-0.0544 0.3807 (  1639 PWs)   bands (ev):

   -17.1551 -17.1285 -17.0951 -17.0471 -17.0281 -16.9650 -16.9222 -16.9039
   -16.8690 -16.8485  -3.4825   1.9753   5.0039   5.9085   9.6521  10.2274
    12.2395  13.2588

     occupation numbers 
     1.0000   1.0000   1.0000   1.0000   1.0000   1.0000   1.0000   1.0000
     1.0000   1.0000   1.0000   1.0000   1.0000   1.0000   0.0000   0.0000
     0.0000   0.0000

          k =-0.1822-0.3807 0.7071 (  1647 PWs)   bands (ev):

   -17.1653 -17.1359 -17.0686 -17.0072 -16.9996 -16.9831 -16.9685 -16.9378
   -16.8576 -16.8326  -1.8532  -0.1101   3.6403   4.8856  10.2108  11.4788
    11.8891  14.8387

     occupation numbers 
     1.0000   1.0000   1.0000   1.0000   1.0000   1.0000   1.0000   1.0000
     1.0000   1.0000   1.0000   1.0000   1.0000   1.0000   0.0000   0.0000
     0.0000   0.0000

          k =-0.1251-0.3264 0.6527 (  1647 PWs)   bands (ev):

   -17.1693 -17.1367 -17.0597 -17.0068 -16.9960 -16.9842 -16.9734 -16.9440
   -16.8570 -16.8286  -1.4896  -0.4956   3.5969   4.6178  10.0163  11.8242
    13.0193  13.5057

     occupation numbers 
     1.0000   1.0000   1.0000   1.0000   1.0000   1.0000   1.0000   1.0000
     1.0000   1.0000   1.0000   1.0000   1.0000   1.0000   0.0000   0.0000
     0.0000   0.0000

          k =-0.0680-0.2720 0.5983 (  1654 PWs)   bands (ev):

   -17.1692 -17.1363 -17.0613 -17.0128 -17.0102 -16.9767 -16.9632 -16.9391
   -16.8579 -16.8293  -1.7892  -0.1871   3.7827   4.5715   9.8500  11.8016
    12.2611  14.4653

     occupation numbers 
     1.0000   1.0000   1.0000   1.0000   1.0000   1.0000   1.0000   1.0000
     1.0000   1.0000   1.0000   1.0000   1.0000   1.0000   0.0000   0.0000
     0.0000   0.0000

          k =-0.0109-0.2176 0.5439 (  1651 PWs)   bands (ev):

   -17.1655 -17.1350 -17.0736 -17.0213 -17.0152 -16.9787 -16.9492 -16.9245
   -16.8602 -16.8341  -2.3251   0.3962   4.0828   4.8274   9.7364  10.6305
    12.5163  15.1904

     occupation numbers 
     1.0000   1.0000   1.0000   1.0000   1.0000   1.0000   1.0000   1.0000
     1.0000   1.0000   1.0000   1.0000   1.0000   1.0000   0.0000   0.0000
     0.0000   0.0000

          k = 0.0462-0.1632 0.4895 (  1644 PWs)   bands (ev):

   -17.1599 -17.1331 -17.0878 -17.0301 -17.0168 -16.9798 -16.9380 -16.9087
   -16.8633 -16.8414  -2.8180   0.9795   4.4402   5.3003   9.3570  10.1105
    12.8577  14.5143

     occupation numbers 
     1.0000   1.0000   1.0000   1.0000   1.0000   1.0000   1.0000   1.0000
     1.0000   1.0000   1.0000   1.0000   1.0000   1.0000   0.0000   0.0000
     0.0000   0.0000

          k = 0.1550-0.1632 0.4895 (  1644 PWs)   bands (ev):

   -17.1582 -17.1385 -17.0838 -17.0308 -17.0213 -16.9755 -16.9377 -16.9111
   -16.8585 -16.8437  -2.7643   0.7326   4.3954   5.6135   9.2424  10.8992
    12.7167  13.5896

     occupation numbers 
     1.0000   1.0000   1.0000   1.0000   1.0000   1.0000   1.0000   1.0000
     1.0000   1.0000   1.0000   1.0000   1.0000   1.0000   0.0000   0.0000
     0.0000   0.0000

          k = 0.2121-0.1088 0.4351 (  1642 PWs)   bands (ev):

   -17.1579 -17.1355 -17.0844 -17.0397 -17.0258 -16.9668 -16.9304 -16.9136
   -16.8617 -16.8445  -3.0362   1.0945   4.6399   5.7299   9.7658  10.7080
    12.1994  13.4200

     occupation numbers 
     1.0000   1.0000   1.0000   1.0000   1.0000   1.0000   1.0000   1.0000
     1.0000   1.0000   1.0000   1.0000   1.0000   1.0000   0.0000   0.0000
     0.0000   0.0000

          k = 0.2692-0.0544 0.3807 (  1639 PWs)   bands (ev):

   -17.1588 -17.1333 -17.0804 -17.0465 -17.0283 -16.9565 -16.9278 -16.9226
   -16.8640 -16.8428  -3.1922   1.4043   4.4202   6.1263   9.8179  11.0359
    12.2372  13.0430

     occupation numbers 
     1.0000   1.0000   1.0000   1.0000   1.0000   1.0000   1.0000   1.0000
     1.0000   1.0000   1.0000   1.0000   1.0000   1.0000   0.0000   0.0000
     0.0000   0.0000

          k =-0.0734-0.3807 0.7071 (  1649 PWs)   bands (ev):

   -17.1680 -17.1419 -17.0487 -17.0198 -16.9903 -16.9866 -16.9650 -16.9527
   -16.8526 -16.8297  -1.1352  -0.8495   3.7567   4.2142  11.0355  11.5194
    11.8180  13.6528

     occupation numbers 
     1.0000   1.0000   1.0000   1.0000   1.0000   1.0000   1.0000   1.0000
     1.0000   1.0000   1.0000   1.0000   1.0000   1.0000   0.0000   0.0000
     0.0000   0.0000

          k =-0.0163-0.3264 0.6527 (  1644 PWs)   bands (ev):

   -17.1690 -17.1429 -17.0441 -17.0224 -17.0051 -16.9723 -16.9686 -16.9499
   -16.8519 -16.8293  -1.4228  -0.5642   3.7748   4.2068  10.9776  11.7749
    12.1547  13.0955

     occupation numbers 
     1.0000   1.0000   1.0000   1.0000   1.0000   1.0000   1.0000   1.0000
     1.0000   1.0000   1.0000   1.0000   1.0000   1.0000   0.0000   0.0000
     0.0000   0.0000

          k = 0.0408-0.2720 0.5983 (  1646 PWs)   bands (ev):

   -17.1664 -17.1426 -17.0580 -17.0203 -17.0118 -16.9784 -16.9579 -16.9352
   -16.8529 -16.8327  -1.9327  -0.0804   3.7896   4.6721  10.5911  10.9069
    12.2742  14.5986

     occupation numbers 
     1.0000   1.0000   1.0000   1.0000   1.0000   1.0000   1.0000   1.0000
     1.0000   1.0000   1.0000   1.0000   1.0000   1.0000   0.0000   0.0000
     0.0000   0.0000

          k = 0.0979-0.2176 0.5439 (  1652 PWs)   bands (ev):

   -17.1618 -17.1411 -17.0743 -17.0238 -17.0155 -16.9805 -16.9468 -16.9200
   -16.8552 -16.8386  -2.3898   0.3470   4.0136   5.2527   9.5814  10.8769
    12.6520  14.4984

     occupation numbers 
     1.0000   1.0000   1.0000   1.0000   1.0000   1.0000   1.0000   1.0000
     1.0000   1.0000   1.0000   1.0000   1.0000   1.0000   0.0000   0.0000
     0.0000   0.0000

          k =-0.4651 0.4895-0.1632 (  1647 PWs)   bands (ev):

   -17.1599 -17.1441 -17.0737 -17.0249 -17.0228 -16.9749 -16.9449 -16.9188
   -16.8531 -16.8411  -2.4538   0.2639   4.0463   5.6915   9.2928  11.7604
    12.9437  13.3781

     occupation numbers 
     1.0000   1.0000   1.0000   1.0000   1.0000   1.0000   1.0000   1.0000
     1.0000   1.0000   1.0000   1.0000   1.0000   1.0000   0.0000   0.0000
     0.0000   0.0000

          k =-0.4079 0.5439-0.2176 (  1647 PWs)   bands (ev):

   -17.1599 -17.1408 -17.0744 -17.0354 -17.0253 -16.9662 -16.9378 -16.9210
   -16.8566 -16.8415  -2.6472   0.4499   4.3701   5.6525   9.7458  11.1277
    12.6338  13.5066

     occupation numbers 
     1.0000   1.0000   1.0000   1.0000   1.0000   1.0000   1.0000   1.0000
     1.0000   1.0000   1.0000   1.0000   1.0000   1.0000   0.0000   0.0000
     0.0000   0.0000

          k =-0.3508 0.5983-0.2720 (  1647 PWs)   bands (ev):

   -17.1616 -17.1380 -17.0714 -17.0403 -17.0258 -16.9585 -16.9352 -16.9303
   -16.8590 -16.8393  -2.7598   0.6577   4.2385   5.8406   9.7417  11.3423
    12.5213  13.6176

     occupation numbers 
     1.0000   1.0000   1.0000   1.0000   1.0000   1.0000   1.0000   1.0000
     1.0000   1.0000   1.0000   1.0000   1.0000   1.0000   0.0000   0.0000
     0.0000   0.0000

          k =-0.2937 0.6527-0.3264 (  1648 PWs)   bands (ev):

   -17.1620 -17.1376 -17.0700 -17.0390 -17.0217 -16.9541 -16.9470 -16.9306
   -16.8591 -16.8380  -2.7778   0.8221   3.9016   6.0557   9.3487  12.2599
    12.6313  13.3478

     occupation numbers 
     1.0000   1.0000   1.0000   1.0000   1.0000   1.0000   1.0000   1.0000
     1.0000   1.0000   1.0000   1.0000   1.0000   1.0000   0.0000   0.0000
     0.0000   0.0000

          k =-0.2366 0.7071-0.3807 (  1646 PWs)   bands (ev):

   -17.1594 -17.1404 -17.0701 -17.0365 -17.0122 -16.9697 -16.9419 -16.9321
   -16.8564 -16.8399  -2.6928   0.8157   3.8030   5.7592   9.7417  11.7170
    12.3998  13.7054

     occupation numbers 
     1.0000   1.0000   1.0000   1.0000   1.0000   1.0000   1.0000   1.0000
     1.0000   1.0000   1.0000   1.0000   1.0000   1.0000   0.0000   0.0000
     0.0000   0.0000

          k =-0.6364 0.3264-0.0000 (  1636 PWs)   bands (ev):

   -17.1674 -17.1464 -17.0387 -17.0250 -17.0104 -16.9728 -16.9673 -16.9475
   -16.8490 -16.8310  -1.5697  -0.4178   3.7917   4.2014  11.3936  11.6588
    12.3543  12.5714

     occupation numbers 
     1.0000   1.0000   1.0000   1.0000   1.0000   1.0000   1.0000   1.0000
     1.0000   1.0000   1.0000   1.0000   1.0000   1.0000   0.0000   0.0000
     0.0000   0.0000

          k =-0.5793 0.3807-0.0544 (  1640 PWs)   bands (ev):

   -17.1661 -17.1471 -17.0508 -17.0191 -17.0083 -16.9861 -16.9596 -16.9372
   -16.8489 -16.8330  -1.8941  -0.1260   3.6181   4.7179  10.7728  11.8070
    12.4512  13.2716

     occupation numbers 
     1.0000   1.0000   1.0000   1.0000   1.0000   1.0000   1.0000   1.0000
     1.0000   1.0000   1.0000   1.0000   1.0000   1.0000   0.0000   0.0000
     0.0000   0.0000

          k =-0.5222 0.4351-0.1088 (  1649 PWs)   bands (ev):

   -17.1628 -17.1464 -17.0650 -17.0221 -17.0101 -16.9852 -16.9525 -16.9258
   -16.8503 -16.8372  -2.1968   0.0899   3.7157   5.3339   9.6978  11.9072
    12.6813  14.2055

     occupation numbers 
     1.0000   1.0000   1.0000   1.0000   1.0000   1.0000   1.0000   1.0000
     1.0000   1.0000   1.0000   1.0000   1.0000   1.0000   0.0000   0.0000
     0.0000   0.0000

          k =-0.4134 0.4351-0.1088 (  1640 PWs)   bands (ev):

   -17.1607 -17.1467 -17.0671 -17.0286 -17.0229 -16.9708 -16.9485 -16.9218
   -16.8511 -16.8400  -2.5212   0.3621   3.8496   5.8784   9.4065  12.1513
    13.1040  13.8482

     occupation numbers 
     1.0000   1.0000   1.0000   1.0000   1.0000   1.0000   1.0000   1.0000
     1.0000   1.0000   1.0000   1.0000   1.0000   1.0000   0.0000   0.0000
     0.0000   0.0000

          k =-0.3563 0.4895-0.1632 (  1645 PWs)   bands (ev):

   -17.1609 -17.1436 -17.0676 -17.0376 -17.0238 -16.9654 -16.9414 -16.9240
   -16.8544 -16.8400  -2.5528   0.3080   4.2027   5.7087   9.7897  11.2355
    13.0108  14.0519

     occupation numbers 
     1.0000   1.0000   1.0000   1.0000   1.0000   1.0000   1.0000   1.0000
     1.0000   1.0000   1.0000   1.0000   1.0000   1.0000   0.0000   0.0000
     0.0000   0.0000

          k =-0.2992 0.5439-0.2176 (  1647 PWs)   bands (ev):

   -17.1629 -17.1402 -17.0674 -17.0375 -17.0233 -16.9637 -16.9389 -16.9299
   -16.8573 -16.8375  -2.5218   0.2914   4.2206   5.6372   9.6656  11.4149
    12.8814  14.2632

     occupation numbers 
     1.0000   1.0000   1.0000   1.0000   1.0000   1.0000   1.0000   1.0000
     1.0000   1.0000   1.0000   1.0000   1.0000   1.0000   0.0000   0.0000
     0.0000   0.0000

          k =-0.2420 0.5983-0.2720 (  1647 PWs)   bands (ev):

   -17.1643 -17.1393 -17.0678 -17.0267 -17.0217 -16.9642 -16.9511 -16.9305
   -16.8574 -16.8352  -2.4302   0.3065   3.8522   5.7654   9.2105  12.2872
    12.9940  14.2239

     occupation numbers 
     1.0000   1.0000   1.0000   1.0000   1.0000   1.0000   1.0000   1.0000
     1.0000   1.0000   1.0000   1.0000   1.0000   1.0000   0.0000   0.0000
     0.0000   0.0000

          k =-0.1849 0.6527-0.3264 (  1637 PWs)   bands (ev):

   -17.1635 -17.1422 -17.0643 -17.0233 -17.0079 -16.9758 -16.9576 -16.9334
   -16.8542 -16.8350  -2.2754   0.2709   3.5942   5.4754   9.5673  12.0153
    13.3520  14.0427

     occupation numbers 
     1.0000   1.0000   1.0000   1.0000   1.0000   1.0000   1.0000   1.0000
     1.0000   1.0000   1.0000   1.0000   1.0000   1.0000   0.0000   0.0000
     0.0000   0.0000

          k =-0.1278 0.7071-0.3807 (  1644 PWs)   bands (ev):

   -17.1598 -17.1473 -17.0594 -17.0212 -16.9956 -16.9901 -16.9580 -16.9378
   -16.8493 -16.8380  -2.0563   0.0931   3.6458   4.9202  10.5329  11.5206
    12.0448  14.3016

     occupation numbers 
     1.0000   1.0000   1.0000   1.0000   1.0000   1.0000   1.0000   1.0000
     1.0000   1.0000   1.0000   1.0000   1.0000   1.0000   0.0000   0.0000
     0.0000   0.0000

          k =-0.5276 0.3264 0.0000 (  1642 PWs)   bands (ev):

   -17.1646 -17.1480 -17.0535 -17.0275 -16.9989 -16.9958 -16.9516 -16.9333
   -16.8489 -16.8350  -2.2484   0.2751   3.6515   4.9436  10.9628  11.5775
    12.2332  13.7311

     occupation numbers 
     1.0000   1.0000   1.0000   1.0000   1.0000   1.0000   1.0000   1.0000
     1.0000   1.0000   1.0000   1.0000   1.0000   1.0000   0.0000   0.0000
     0.0000   0.0000

          k =-0.4705 0.3807-0.0544 (  1643 PWs)   bands (ev):

   -17.1626 -17.1482 -17.0613 -17.0279 -17.0103 -16.9832 -16.9514 -16.9260
   -16.8493 -16.8375  -2.4213   0.3827   3.6119   5.5378   9.8760  12.1605
    13.4211  13.5620

     occupation numbers 
     1.0000   1.0000   1.0000   1.0000   1.0000   1.0000   1.0000   1.0000
     1.0000   1.0000   1.0000   1.0000   1.0000   1.0000   0.0000   0.0000
     0.0000   0.0000

          k =-0.3617 0.3807-0.0544 (  1631 PWs)   bands (ev):

   -17.1604 -17.1459 -17.0642 -17.0409 -17.0265 -16.9609 -16.9468 -16.9204
   -16.8531 -16.8405  -2.8995   0.9334   3.8589   6.1561   9.5816  12.3264
    12.7343  13.6724

     occupation numbers 
     1.0000   1.0000   1.0000   1.0000   1.0000   1.0000   1.0000   1.0000
     1.0000   1.0000   1.0000   1.0000   1.0000   1.0000   0.0000   0.0000
     0.0000   0.0000

          k =-0.3046 0.4351-0.1088 (  1634 PWs)   bands (ev):

   -17.1606 -17.1437 -17.0650 -17.0452 -17.0245 -16.9638 -16.9383 -16.9227
   -16.8553 -16.8404  -2.8400   0.7543   4.1680   5.8895   9.9072  11.2748
    12.9040  13.8750

     occupation numbers 
     1.0000   1.0000   1.0000   1.0000   1.0000   1.0000   1.0000   1.0000
     1.0000   1.0000   1.0000   1.0000   1.0000   1.0000   0.0000   0.0000
     0.0000   0.0000

          k =-0.2475 0.4895-0.1632 (  1641 PWs)   bands (ev):

   -17.1623 -17.1403 -17.0692 -17.0404 -17.0198 -16.9706 -16.9339 -16.9260
   -16.8582 -16.8382  -2.6804   0.5294   4.3311   5.5606   9.6448  11.4606
    12.9697  13.5643

     occupation numbers 
     1.0000   1.0000   1.0000   1.0000   1.0000   1.0000   1.0000   1.0000
     1.0000   1.0000   1.0000   1.0000   1.0000   1.0000   0.0000   0.0000
     0.0000   0.0000

          k =-0.1904 0.5439-0.2176 (  1643 PWs)   bands (ev):

   -17.1639 -17.1391 -17.0711 -17.0276 -17.0146 -16.9780 -16.9440 -16.9259
   -16.8582 -16.8355  -2.4329   0.3073   4.0079   5.5613   9.1102  12.2367
    13.1760  13.3602

     occupation numbers 
     1.0000   1.0000   1.0000   1.0000   1.0000   1.0000   1.0000   1.0000
     1.0000   1.0000   1.0000   1.0000   1.0000   1.0000   0.0000   0.0000
     0.0000   0.0000

          k =-0.1333 0.5983-0.2720 (  1634 PWs)   bands (ev):

   -17.1642 -17.1423 -17.0652 -17.0165 -17.0044 -16.9871 -16.9571 -16.9315
   -16.8542 -16.8341  -2.1142   0.0652   3.6576   5.2804   9.3839  12.1447
    12.9452  14.3445

     occupation numbers 
     1.0000   1.0000   1.0000   1.0000   1.0000   1.0000   1.0000   1.0000
     1.0000   1.0000   1.0000   1.0000   1.0000   1.0000   0.0000   0.0000
     0.0000   0.0000

          k =-0.0761 0.6527-0.3264 (  1639 PWs)   bands (ev):

   -17.1622 -17.1480 -17.0541 -17.0125 -16.9989 -16.9877 -16.9681 -16.9408
   -16.8484 -16.8352  -1.7436  -0.2477   3.5701   4.7214  10.3361  11.8419
    12.8318  13.2829

     occupation numbers 
     1.0000   1.0000   1.0000   1.0000   1.0000   1.0000   1.0000   1.0000
     1.0000   1.0000   1.0000   1.0000   1.0000   1.0000   0.0000   0.0000
     0.0000   0.0000

          k =-0.0190 0.7071-0.3807 (  1642 PWs)   bands (ev):

   -17.1580 -17.1536 -17.0433 -17.0239 -16.9961 -16.9821 -16.9662 -16.9506
   -16.8429 -16.8388  -1.3551  -0.6304   3.7784   4.2148  11.3376  11.4703
    12.0150  13.0650

     occupation numbers 
     1.0000   1.0000   1.0000   1.0000   1.0000   1.0000   1.0000   1.0000
     1.0000   1.0000   1.0000   1.0000   1.0000   1.0000   0.0000   0.0000
     0.0000   0.0000

          k =-0.4188 0.3264-0.0000 (  1635 PWs)   bands (ev):

   -17.1613 -17.1463 -17.0619 -17.0419 -17.0185 -16.9722 -16.9424 -16.9231
   -16.8524 -16.8394  -2.8514   0.9572   3.7843   5.8337  10.0792  11.8684
    12.6561  13.7414

     occupation numbers 
     1.0000   1.0000   1.0000   1.0000   1.0000   1.0000   1.0000   1.0000
     1.0000   1.0000   1.0000   1.0000   1.0000   1.0000   0.0000   0.0000
     0.0000   0.0000

          k =-0.3100 0.3264 0.0000 (  1624 PWs)   bands (ev):

   -17.1587 -17.1417 -17.0646 -17.0557 -17.0347 -16.9490 -16.9401 -16.9153
   -16.8591 -16.8428  -3.3447   1.6531   4.1613   6.4883   9.7312  12.2220
    12.2611  12.7829

     occupation numbers 
     1.0000   1.0000   1.0000   1.0000   1.0000   1.0000   1.0000   1.0000
     1.0000   1.0000   1.0000   1.0000   1.0000   1.0000   0.0000   0.0000
     0.0000   0.0000

          k =-0.2529 0.3807-0.0544 (  1626 PWs)   bands (ev):

   -17.1589 -17.1409 -17.0678 -17.0543 -17.0296 -16.9597 -16.9300 -16.9178
   -16.8597 -16.8427  -3.2807   1.5242   4.3174   6.1620  10.0690  11.1739
    12.5177  13.1913

     occupation numbers 
     1.0000   1.0000   1.0000   1.0000   1.0000   1.0000   1.0000   1.0000
     1.0000   1.0000   1.0000   1.0000   1.0000   1.0000   0.0000   0.0000
     0.0000   0.0000

          k =-0.1958 0.4351-0.1088 (  1639 PWs)   bands (ev):

   -17.1597 -17.1386 -17.0758 -17.0460 -17.0199 -16.9732 -16.9255 -16.9189
   -16.8613 -16.8415  -3.0920   1.2188   4.5536   5.6296   9.6759  11.3226
    12.4268  13.3824

     occupation numbers 
     1.0000   1.0000   1.0000   1.0000   1.0000   1.0000   1.0000   1.0000
     1.0000   1.0000   1.0000   1.0000   1.0000   1.0000   0.0000   0.0000
     0.0000   0.0000

          k =-0.1387 0.4895-0.1632 (  1646 PWs)   bands (ev):

   -17.1608 -17.1375 -17.0792 -17.0343 -17.0094 -16.9853 -16.9354 -16.9167
   -16.8611 -16.8393  -2.7852   0.8365   4.3354   5.4636   9.0717  11.5576
    12.8283  13.5332

     occupation numbers 
     1.0000   1.0000   1.0000   1.0000   1.0000   1.0000   1.0000   1.0000
     1.0000   1.0000   1.0000   1.0000   1.0000   1.0000   0.0000   0.0000
     0.0000   0.0000

          k =-0.0816 0.5439-0.2176 (  1642 PWs)   bands (ev):

   -17.1612 -17.1411 -17.0727 -17.0228 -17.0000 -16.9940 -16.9478 -16.9244
   -16.8560 -16.8375  -2.3730   0.3985   3.9389   5.2027   9.2592  11.4615
    12.5639  14.6900

     occupation numbers 
     1.0000   1.0000   1.0000   1.0000   1.0000   1.0000   1.0000   1.0000
     1.0000   1.0000   1.0000   1.0000   1.0000   1.0000   0.0000   0.0000
     0.0000   0.0000

          k =-0.0245 0.5983-0.2720 (  1637 PWs)   bands (ev):

   -17.1603 -17.1475 -17.0586 -17.0161 -17.0039 -16.9842 -16.9618 -16.9374
   -16.8490 -16.8371  -1.8776  -0.1027   3.7348   4.6865  10.1524  11.4110
    12.2052  14.5907

     occupation numbers 
     1.0000   1.0000   1.0000   1.0000   1.0000   1.0000   1.0000   1.0000
     1.0000   1.0000   1.0000   1.0000   1.0000   1.0000   0.0000   0.0000
     0.0000   0.0000

          k = 0.0326 0.6527-0.3264 (  1643 PWs)   bands (ev):

   -17.1579 -17.1536 -17.0432 -17.0238 -16.9960 -16.9822 -16.9663 -16.9507
   -16.8429 -16.8389  -1.3539  -0.6303   3.7758   4.2158  11.3338  11.4597
    12.0177  13.0775

     occupation numbers 
     1.0000   1.0000   1.0000   1.0000   1.0000   1.0000   1.0000   1.0000
     1.0000   1.0000   1.0000   1.0000   1.0000   1.0000   0.0000   0.0000
     0.0000   0.0000

          k =-0.2013 0.3264-0.0000 (  1622 PWs)   bands (ev):

   -17.1559 -17.1355 -17.0767 -17.0605 -17.0380 -16.9529 -16.9208 -16.9100
   -16.8671 -16.8465  -3.7020   2.3544   4.7368   6.4642  10.1605  10.7106
    12.3457  12.6327

     occupation numbers 
     1.0000   1.0000   1.0000   1.0000   1.0000   1.0000   1.0000   1.0000
     1.0000   1.0000   1.0000   1.0000   1.0000   1.0000   0.0000   0.0000
     0.0000   0.0000

          k =-0.1441 0.3807-0.0544 (  1635 PWs)   bands (ev):

   -17.1557 -17.1351 -17.0851 -17.0526 -17.0246 -16.9701 -16.9170 -16.9092
   -16.8666 -16.8468  -3.5338   2.0935   4.8994   5.8252   9.6636  10.7716
    12.3494  13.2888

     occupation numbers 
     1.0000   1.0000   1.0000   1.0000   1.0000   1.0000   1.0000   1.0000
     1.0000   1.0000   1.0000   1.0000   1.0000   1.0000   0.0000   0.0000
     0.0000   0.0000

          k =-0.0870 0.4351-0.1088 (  1642 PWs)   bands (ev):

   -17.1554 -17.1349 -17.0901 -17.0418 -17.0108 -16.9853 -16.9268 -16.9045
   -16.8654 -16.8460  -3.2349   1.6209   4.8065   5.4814   9.0280  10.6693
    13.0042  13.6091

     occupation numbers 
     1.0000   1.0000   1.0000   1.0000   1.0000   1.0000   1.0000   1.0000
     1.0000   1.0000   1.0000   1.0000   1.0000   1.0000   0.0000   0.0000
     0.0000   0.0000

          k =-0.0299 0.4895-0.1632 (  1647 PWs)   bands (ev):

   -17.1552 -17.1388 -17.0854 -17.0306 -17.0018 -16.9937 -16.9382 -16.9113
   -16.8594 -16.8445  -2.8164   1.0336   4.3918   5.2510   9.1537  10.4498
    12.8191  14.6409

     occupation numbers 
     1.0000   1.0000   1.0000   1.0000   1.0000   1.0000   1.0000   1.0000
     1.0000   1.0000   1.0000   1.0000   1.0000   1.0000   0.0000   0.0000
     0.0000   0.0000

          k = 0.0272 0.5439-0.2176 (  1644 PWs)   bands (ev):

   -17.1547 -17.1459 -17.0725 -17.0221 -17.0065 -16.9851 -16.9504 -16.9254
   -16.8511 -16.8434  -2.3039   0.3875   4.0752   4.8371   9.9190  10.3851
    12.4808  15.1395

     occupation numbers 
     1.0000   1.0000   1.0000   1.0000   1.0000   1.0000   1.0000   1.0000
     1.0000   1.0000   1.0000   1.0000   1.0000   1.0000   0.0000   0.0000
     0.0000   0.0000

          k = 0.0843 0.5983-0.2720 (  1647 PWs)   bands (ev):

   -17.1537 -17.1526 -17.0586 -17.0210 -17.0012 -16.9816 -16.9608 -16.9391
   -16.8440 -16.8434  -1.7825  -0.2114   3.8400   4.5663  10.2421  11.2433
    12.2411  14.4148

     occupation numbers 
     1.0000   1.0000   1.0000   1.0000   1.0000   1.0000   1.0000   1.0000
     1.0000   1.0000   1.0000   1.0000   1.0000   1.0000   0.0000   0.0000
     0.0000   0.0000

          k =-0.6010-0.0544 0.3807 (  1645 PWs)   bands (ev):

   -17.1576 -17.1512 -17.0535 -17.0190 -16.9919 -16.9896 -16.9650 -16.9433
   -16.8453 -16.8395  -1.6274  -0.3765   3.6523   4.6209  10.3705  11.8347
    12.8840  13.0557

     occupation numbers 
     1.0000   1.0000   1.0000   1.0000   1.0000   1.0000   1.0000   1.0000
     1.0000   1.0000   1.0000   1.0000   1.0000   1.0000   0.0000   0.0000
     0.0000   0.0000

          k =-0.0925 0.3264-0.0000 (  1651 PWs)   bands (ev):

   -17.1510 -17.1302 -17.0941 -17.0594 -17.0327 -16.9624 -16.9095 -16.8998
   -16.8738 -16.8528  -3.9059   2.9653   5.4099   6.0640   9.4224  10.4769
    12.4414  12.8768

     occupation numbers 
     1.0000   1.0000   1.0000   1.0000   1.0000   1.0000   1.0000   1.0000
     1.0000   1.0000   1.0000   1.0000   1.0000   1.0000   0.0000   0.0000
     0.0000   0.0000

          k =-0.0354 0.3807-0.0544 (  1647 PWs)   bands (ev):

   -17.1487 -17.1317 -17.1008 -17.0494 -17.0171 -16.9792 -16.9187 -16.8925
   -16.8706 -16.8547  -3.6398   2.4639   5.3609   5.6144   8.8287  10.2623
    13.1988  13.4154

     occupation numbers 
     1.0000   1.0000   1.0000   1.0000   1.0000   1.0000   1.0000   1.0000
     1.0000   1.0000   1.0000   1.0000   1.0000   1.0000   0.0000   0.0000
     0.0000   0.0000

          k = 0.0218 0.4351-0.1088 (  1646 PWs)   bands (ev):

   -17.1472 -17.1358 -17.0995 -17.0383 -17.0051 -16.9908 -16.9298 -16.8962
   -16.8640 -16.8541  -3.2461   1.7422   4.9497   5.4024   8.8911   9.9935
    13.0286  14.1278

     occupation numbers 
     1.0000   1.0000   1.0000   1.0000   1.0000   1.0000   1.0000   1.0000
     1.0000   1.0000   1.0000   1.0000   1.0000   1.0000   0.0000   0.0000
     0.0000   0.0000

          k = 0.0789 0.4895-0.1632 (  1649 PWs)   bands (ev):

   -17.1468 -17.1430 -17.0894 -17.0280 -17.0058 -16.9881 -16.9414 -16.9090
   -16.8553 -16.8517  -2.7481   0.9489   4.5158   5.1255   9.2453  10.2016
    12.7338  14.2975

     occupation numbers 
     1.0000   1.0000   1.0000   1.0000   1.0000   1.0000   1.0000   1.0000
     1.0000   1.0000   1.0000   1.0000   1.0000   1.0000   0.0000   0.0000
     0.0000   0.0000

          k = 0.1360 0.5439-0.2176 (  1653 PWs)   bands (ev):

   -17.1511 -17.1460 -17.0766 -17.0212 -17.0062 -16.9828 -16.9524 -16.9232
   -16.8514 -16.8461  -2.2159   0.2202   4.0747   5.0319   9.3138  11.1727
    12.5386  14.1274

     occupation numbers 
     1.0000   1.0000   1.0000   1.0000   1.0000   1.0000   1.0000   1.0000
     1.0000   1.0000   1.0000   1.0000   1.0000   1.0000   0.0000   0.0000
     0.0000   0.0000

          k =-0.5494-0.1088 0.4351 (  1647 PWs)   bands (ev):

   -17.1565 -17.1455 -17.0675 -17.0192 -17.0019 -16.9810 -16.9604 -16.9325
   -16.8508 -16.8409  -1.9077  -0.1545   3.7436   5.1360   9.3885  11.9945
    12.9142  13.7581

     occupation numbers 
     1.0000   1.0000   1.0000   1.0000   1.0000   1.0000   1.0000   1.0000
     1.0000   1.0000   1.0000   1.0000   1.0000   1.0000   0.0000   0.0000
     0.0000   0.0000

          k =-0.4923-0.0544 0.3807 (  1642 PWs)   bands (ev):

   -17.1592 -17.1439 -17.0654 -17.0247 -17.0032 -16.9769 -16.9578 -16.9346
   -16.8523 -16.8389  -2.1731   0.1686   3.6230   5.3940   9.5504  12.0667
    12.9731  14.0002

     occupation numbers 
     1.0000   1.0000   1.0000   1.0000   1.0000   1.0000   1.0000   1.0000
     1.0000   1.0000   1.0000   1.0000   1.0000   1.0000   0.0000   0.0000
     0.0000   0.0000

          k = 0.0218 0.4351-0.0000 (  1650 PWs)   bands (ev):

   -17.1431 -17.1352 -17.1063 -17.0383 -16.9999 -16.9974 -16.9290 -16.8870
   -16.8652 -16.8598  -3.3197   1.9015   5.3071   5.3153   8.3485   9.7273
    14.0773  14.1468

     occupation numbers 
     1.0000   1.0000   1.0000   1.0000   1.0000   1.0000   1.0000   1.0000
     1.0000   1.0000   1.0000   1.0000   1.0000   1.0000   0.0000   0.0000
     0.0000   0.0000

          k = 0.0789 0.4895-0.0544 (  1649 PWs)   bands (ev):

   -17.1413 -17.1394 -17.1028 -17.0266 -17.0109 -16.9859 -16.9407 -16.8941
   -16.8599 -16.8574  -2.8788   1.1638   4.9600   5.1246   8.4605   9.4910
    13.8941  14.5778

     occupation numbers 
     1.0000   1.0000   1.0000   1.0000   1.0000   1.0000   1.0000   1.0000
     1.0000   1.0000   1.0000   1.0000   1.0000   1.0000   0.0000   0.0000
     0.0000   0.0000

          k = 0.1360 0.5439-0.1088 (  1652 PWs)   bands (ev):

   -17.1489 -17.1401 -17.0897 -17.0197 -17.0135 -16.9774 -16.9526 -16.9100
   -16.8568 -16.8485  -2.3505   0.4151   4.3712   5.0686   8.6738   9.9849
    13.6038  14.5714

     occupation numbers 
     1.0000   1.0000   1.0000   1.0000   1.0000   1.0000   1.0000   1.0000
     1.0000   1.0000   1.0000   1.0000   1.0000   1.0000   0.0000   0.0000
     0.0000   0.0000

          k =-0.5494-0.1088 0.5439 (  1650 PWs)   bands (ev):

   -17.1567 -17.1411 -17.0758 -17.0179 -17.0038 -16.9771 -16.9639 -16.9249
   -16.8546 -16.8405  -1.8556  -0.1843   3.8327   5.1459   8.7468  11.1427
    13.3804  14.3280

     occupation numbers 
     1.0000   1.0000   1.0000   1.0000   1.0000   1.0000   1.0000   1.0000
     1.0000   1.0000   1.0000   1.0000   1.0000   1.0000   0.0000   0.0000
     0.0000   0.0000

          k =-0.4923-0.0544 0.4895 (  1650 PWs)   bands (ev):

   -17.1619 -17.1414 -17.0678 -17.0122 -16.9993 -16.9809 -16.9710 -16.9320
   -16.8540 -16.8357  -1.8088  -0.2278   3.5023   5.3505   8.8943  12.4860
    13.3069  13.9894

     occupation numbers 
     1.0000   1.0000   1.0000   1.0000   1.0000   1.0000   1.0000   1.0000
     1.0000   1.0000   1.0000   1.0000   1.0000   1.0000   0.0000   0.0000
     0.0000   0.0000

          k =-0.4351 0.0000 0.4351 (  1649 PWs)   bands (ev):

   -17.1637 -17.1404 -17.0662 -17.0221 -17.0078 -16.9683 -16.9656 -16.9329
   -16.8553 -16.8349  -2.2591   0.2791   3.4911   5.6656   9.1308  12.9001
    13.3936  13.7524

     occupation numbers 
     1.0000   1.0000   1.0000   1.0000   1.0000   1.0000   1.0000   1.0000
     1.0000   1.0000   1.0000   1.0000   1.0000   1.0000   0.0000   0.0000
     0.0000   0.0000

          k = 0.1305 0.4351-0.0000 (  1645 PWs)   bands (ev):

   -17.1400 -17.1334 -17.1102 -17.0347 -16.9990 -16.9955 -16.9337 -16.8883
   -16.8655 -16.8603  -3.1892   1.6616   5.0117   5.4259   8.8131   9.8029
    12.8221  14.0042

     occupation numbers 
     1.0000   1.0000   1.0000   1.0000   1.0000   1.0000   1.0000   1.0000
     1.0000   1.0000   1.0000   1.0000   1.0000   1.0000   0.0000   0.0000
     0.0000   0.0000

          k = 0.1877 0.4895-0.0544 (  1654 PWs)   bands (ev):

   -17.1484 -17.1348 -17.0974 -17.0237 -17.0052 -16.9877 -16.9452 -16.9047
   -16.8612 -16.8501  -2.6859   0.8709   4.4874   5.2190   9.1162  10.1218
    12.5152  14.3928

     occupation numbers 
     1.0000   1.0000   1.0000   1.0000   1.0000   1.0000   1.0000   1.0000
     1.0000   1.0000   1.0000   1.0000   1.0000   1.0000   0.0000   0.0000
     0.0000   0.0000

          k =-0.4977-0.1632 0.5983 (  1651 PWs)   bands (ev):

   -17.1566 -17.1368 -17.0820 -17.0130 -17.0098 -16.9809 -16.9572 -16.9211
   -16.8583 -16.8412  -2.1555   0.1588   4.0097   5.1328   9.1922  11.1237
    12.2852  14.4069

     occupation numbers 
     1.0000   1.0000   1.0000   1.0000   1.0000   1.0000   1.0000   1.0000
     1.0000   1.0000   1.0000   1.0000   1.0000   1.0000   0.0000   0.0000
     0.0000   0.0000

          k =-0.4406-0.1088 0.5439 (  1652 PWs)   bands (ev):

   -17.1623 -17.1380 -17.0709 -17.0129 -17.0039 -16.9774 -16.9673 -16.9312
   -16.8570 -16.8355  -1.8761  -0.1748   3.6818   5.2039   9.3061  11.7402
    12.8182  14.2519

     occupation numbers 
     1.0000   1.0000   1.0000   1.0000   1.0000   1.0000   1.0000   1.0000
     1.0000   1.0000   1.0000   1.0000   1.0000   1.0000   0.0000   0.0000
     0.0000   0.0000

          k =-0.3835-0.0544 0.4895 (  1646 PWs)   bands (ev):

   -17.1645 -17.1379 -17.0670 -17.0225 -17.0043 -16.9748 -16.9609 -16.9338
   -16.8574 -16.8340  -2.1747   0.1828   3.5862   5.4180   9.5089  11.7017
    13.6346  13.9888

     occupation numbers 
     1.0000   1.0000   1.0000   1.0000   1.0000   1.0000   1.0000   1.0000
     1.0000   1.0000   1.0000   1.0000   1.0000   1.0000   0.0000   0.0000
     0.0000   0.0000

          k =-0.3264 0.0000 0.4351 (  1647 PWs)   bands (ev):

   -17.1631 -17.1364 -17.0704 -17.0365 -17.0147 -16.9670 -16.9420 -16.9321
   -16.8598 -16.8367  -2.6980   0.8177   3.8097   5.7451   9.7434  11.5983
    12.6122  13.6849

     occupation numbers 
     1.0000   1.0000   1.0000   1.0000   1.0000   1.0000   1.0000   1.0000
     1.0000   1.0000   1.0000   1.0000   1.0000   1.0000   0.0000   0.0000
     0.0000   0.0000

          k = 0.2393 0.4351-0.0000 (  1657 PWs)   bands (ev):

   -17.1491 -17.1314 -17.0987 -17.0313 -17.0010 -16.9875 -16.9396 -16.9075
   -16.8628 -16.8506  -2.9167   1.2019   4.3790   5.5842  10.0251  10.0731
    11.8152  13.7843

     occupation numbers 
     1.0000   1.0000   1.0000   1.0000   1.0000   1.0000   1.0000   1.0000
     1.0000   1.0000   1.0000   1.0000   1.0000   1.0000   0.0000   0.0000
     0.0000   0.0000

          k =-0.4460-0.2176 0.6527 (  1651 PWs)   bands (ev):

   -17.1577 -17.1336 -17.0834 -17.0206 -17.0005 -16.9852 -16.9514 -16.9240
   -16.8602 -16.8407  -2.3829   0.4617   3.9701   5.2781   9.9960  10.7851
    11.8626  14.2467

     occupation numbers 
     1.0000   1.0000   1.0000   1.0000   1.0000   1.0000   1.0000   1.0000
     1.0000   1.0000   1.0000   1.0000   1.0000   1.0000   0.0000   0.0000
     0.0000   0.0000

          k =-0.3889-0.1632 0.5983 (  1652 PWs)   bands (ev):

   -17.1638 -17.1344 -17.0723 -17.0127 -17.0044 -16.9772 -16.9642 -16.9337
   -16.8595 -16.8342  -1.9525  -0.0777   3.7675   5.0853   9.9579  10.9267
    12.8631  14.3528

     occupation numbers 
     1.0000   1.0000   1.0000   1.0000   1.0000   1.0000   1.0000   1.0000
     1.0000   1.0000   1.0000   1.0000   1.0000   1.0000   0.0000   0.0000
     0.0000   0.0000

          k =-0.3318-0.1088 0.5439 (  1648 PWs)   bands (ev):

   -17.1664 -17.1341 -17.0688 -17.0194 -17.0002 -16.9822 -16.9585 -16.9348
   -16.8603 -16.8319  -2.0305   0.0146   3.7511   5.0700   9.9344  11.0012
    13.5384  13.9937

     occupation numbers 
     1.0000   1.0000   1.0000   1.0000   1.0000   1.0000   1.0000   1.0000
     1.0000   1.0000   1.0000   1.0000   1.0000   1.0000   0.0000   0.0000
     0.0000   0.0000

          k =-0.2747-0.0544 0.4895 (  1654 PWs)   bands (ev):

   -17.1652 -17.1328 -17.0740 -17.0298 -17.0064 -16.9808 -16.9434 -16.9288
   -16.8627 -16.8342  -2.5164   0.6243   3.9331   5.2401   9.9346  11.1184
    12.3290  14.2614

     occupation numbers 
     1.0000   1.0000   1.0000   1.0000   1.0000   1.0000   1.0000   1.0000
     1.0000   1.0000   1.0000   1.0000   1.0000   1.0000   0.0000   0.0000
     0.0000   0.0000

          k =-0.2176 0.0000 0.4351 (  1645 PWs)   bands (ev):

   -17.1608 -17.1307 -17.0850 -17.0392 -17.0168 -16.9742 -16.9312 -16.9158
   -16.8661 -16.8402  -3.0404   1.3321   4.3515   5.5565   9.9385  10.6737
    11.9636  13.9493

     occupation numbers 
     1.0000   1.0000   1.0000   1.0000   1.0000   1.0000   1.0000   1.0000
     1.0000   1.0000   1.0000   1.0000   1.0000   1.0000   0.0000   0.0000
     0.0000   0.0000

          k =-0.3943-0.2720 0.7071 (  1649 PWs)   bands (ev):

   -17.1589 -17.1306 -17.0842 -17.0259 -16.9998 -16.9804 -16.9476 -16.9288
   -16.8617 -16.8399  -2.5209   0.6462   3.8233   5.6883   9.5006  11.5750
    12.2049  13.5547

     occupation numbers 
     1.0000   1.0000   1.0000   1.0000   1.0000   1.0000   1.0000   1.0000
     1.0000   1.0000   1.0000   1.0000   1.0000   1.0000   0.0000   0.0000
     0.0000   0.0000

          k =-0.3372-0.2176 0.6527 (  1647 PWs)   bands (ev):

   -17.1658 -17.1310 -17.0744 -17.0120 -16.9991 -16.9786 -16.9661 -16.9359
   -16.8614 -16.8324  -2.0131   0.0282   3.6016   5.3363   9.3171  11.9247
    12.9894  14.1687

     occupation numbers 
     1.0000   1.0000   1.0000   1.0000   1.0000   1.0000   1.0000   1.0000
     1.0000   1.0000   1.0000   1.0000   1.0000   1.0000   0.0000   0.0000
     0.0000   0.0000

          k =-0.2801-0.1632 0.5983 (  1648 PWs)   bands (ev):

   -17.1688 -17.1300 -17.0721 -17.0101 -16.9967 -16.9879 -16.9637 -16.9346
   -16.8628 -16.8294  -1.8464  -0.1729   3.6770   5.0889   9.1374  12.0694
    13.4336  13.8863

     occupation numbers 
     1.0000   1.0000   1.0000   1.0000   1.0000   1.0000   1.0000   1.0000
     1.0000   1.0000   1.0000   1.0000   1.0000   1.0000   0.0000   0.0000
     0.0000   0.0000

          k =-0.2230-0.1088 0.5439 (  1651 PWs)   bands (ev):

   -17.1678 -17.1280 -17.0782 -17.0197 -17.0045 -16.9858 -16.9510 -16.9252
   -16.8658 -16.8312  -2.2385   0.2906   3.9928   4.9886   9.0387  11.8026
    12.5267  14.2916

     occupation numbers 
     1.0000   1.0000   1.0000   1.0000   1.0000   1.0000   1.0000   1.0000
     1.0000   1.0000   1.0000   1.0000   1.0000   1.0000   0.0000   0.0000
     0.0000   0.0000

          k =-0.1659-0.0544 0.4895 (  1652 PWs)   bands (ev):

   -17.1634 -17.1255 -17.0903 -17.0294 -17.0114 -16.9831 -16.9392 -16.9097
   -16.8699 -16.8369  -2.7758   1.0003   4.4708   5.0804   9.0014  10.6886
    12.7734  14.4290

     occupation numbers 
     1.0000   1.0000   1.0000   1.0000   1.0000   1.0000   1.0000   1.0000
     1.0000   1.0000   1.0000   1.0000   1.0000   1.0000   0.0000   0.0000
     0.0000   0.0000

          k =-0.1088 0.0000 0.4351 (  1648 PWs)   bands (ev):

   -17.1575 -17.1234 -17.1019 -17.0388 -17.0168 -16.9796 -16.9286 -16.8955
   -16.8737 -16.8452  -3.2568   1.7310   4.9355   5.4275   8.8625  10.0703
    13.0790  14.1448

     occupation numbers 
     1.0000   1.0000   1.0000   1.0000   1.0000   1.0000   1.0000   1.0000
     1.0000   1.0000   1.0000   1.0000   1.0000   1.0000   0.0000   0.0000
     0.0000   0.0000

          k = 0.0000 0.0000 0.4351 (  1650 PWs)   bands (ev):

   -17.1555 -17.1164 -17.1128 -17.0389 -17.0173 -16.9807 -16.9277 -16.8833
   -16.8806 -16.8483  -3.3307   1.8869   5.1126   5.5336   8.3368   9.7728
    14.1476  14.2607

     occupation numbers 
     1.0000   1.0000   1.0000   1.0000   1.0000   1.0000   1.0000   1.0000
     1.0000   1.0000   1.0000   1.0000   1.0000   1.0000   0.0000   0.0000
     0.0000   0.0000

          k =-0.2856-0.2720 0.7071 (  1654 PWs)   bands (ev):

   -17.1666 -17.1295 -17.0757 -17.0118 -16.9935 -16.9812 -16.9683 -16.9363
   -16.8621 -16.8316  -2.0364   0.0758   3.4947   5.5294   8.9348  12.9999
    13.1426  13.5191

     occupation numbers 
     1.0000   1.0000   1.0000   1.0000   1.0000   1.0000   1.0000   1.0000
     1.0000   1.0000   1.0000   1.0000   1.0000   1.0000   0.0000   0.0000
     0.0000   0.0000

          k =-0.2284-0.2176 0.6527 (  1646 PWs)   bands (ev):

   -17.1704 -17.1286 -17.0724 -16.9977 -16.9937 -16.9920 -16.9741 -16.9361
   -16.8630 -16.8276  -1.6562  -0.3459   3.4952   5.2013   8.7069  13.0944
    13.5039  13.8259

     occupation numbers 
     1.0000   1.0000   1.0000   1.0000   1.0000   1.0000   1.0000   1.0000
     1.0000   1.0000   1.0000   1.0000   1.0000   1.0000   0.0000   0.0000
     0.0000   0.0000

          k =-0.1713-0.1632 0.5983 (  1649 PWs)   bands (ev):

   -17.1699 -17.1265 -17.0768 -17.0116 -17.0084 -16.9793 -16.9610 -16.9284
   -16.8656 -16.8286  -1.8767  -0.1165   3.8225   4.9828   8.5560  11.7779
    13.5457  14.2979

     occupation numbers 
     1.0000   1.0000   1.0000   1.0000   1.0000   1.0000   1.0000   1.0000
     1.0000   1.0000   1.0000   1.0000   1.0000   1.0000   0.0000   0.0000
     0.0000   0.0000

          k =-0.1142-0.1088 0.5439 (  1651 PWs)   bands (ev):

   -17.1658 -17.1236 -17.0889 -17.0192 -17.0189 -16.9766 -16.9487 -16.9122
   -16.8697 -16.8338  -2.4085   0.5096   4.3940   4.8923   8.4938  10.5050
    13.8479  14.5963

     occupation numbers 
     1.0000   1.0000   1.0000   1.0000   1.0000   1.0000   1.0000   1.0000
     1.0000   1.0000   1.0000   1.0000   1.0000   1.0000   0.0000   0.0000
     0.0000   0.0000

          k =-0.0571-0.0544 0.4895 (  1650 PWs)   bands (ev):

   -17.1599 -17.1202 -17.1034 -17.0291 -17.0185 -16.9796 -16.9376 -16.8947
   -16.8748 -16.8416  -2.9194   1.2097   4.9363   5.0692   8.4059   9.7477
    14.1984  14.6038

     occupation numbers 
     1.0000   1.0000   1.0000   1.0000   1.0000   1.0000   1.0000   1.0000
     1.0000   1.0000   1.0000   1.0000   1.0000   1.0000   0.0000   0.0000
     0.0000   0.0000

          k = 0.0517-0.0544 0.4895 (  1647 PWs)   bands (ev):

   -17.1580 -17.1256 -17.1007 -17.0292 -17.0200 -16.9788 -16.9372 -16.8955
   -16.8703 -16.8441  -2.9331   1.1967   4.7521   5.3638   8.4914   9.5436
    14.2125  14.6803

     occupation numbers 
     1.0000   1.0000   1.0000   1.0000   1.0000   1.0000   1.0000   1.0000
     1.0000   1.0000   1.0000   1.0000   1.0000   1.0000   0.0000   0.0000
     0.0000   0.0000

          k =-0.1768-0.2720 0.7071 (  1647 PWs)   bands (ev):

   -17.1706 -17.1317 -17.0670 -16.9983 -16.9923 -16.9857 -16.9819 -16.9402
   -16.8605 -16.8273  -1.5133  -0.4729   3.4697   4.9688   9.0737  13.1316
    13.2510  13.4804

     occupation numbers 
     1.0000   1.0000   1.0000   1.0000   1.0000   1.0000   1.0000   1.0000
     1.0000   1.0000   1.0000   1.0000   1.0000   1.0000   0.0000   0.0000
     0.0000   0.0000

          k =-0.1197-0.2176 0.6527 (  1651 PWs)   bands (ev):

   -17.1709 -17.1310 -17.0663 -17.0190 -16.9983 -16.9732 -16.9694 -16.9386
   -16.8614 -16.8273  -1.4528  -0.5551   3.7162   4.7186   8.8596  11.7591
    13.5462  14.5982

     occupation numbers 
     1.0000   1.0000   1.0000   1.0000   1.0000   1.0000   1.0000   1.0000
     1.0000   1.0000   1.0000   1.0000   1.0000   1.0000   0.0000   0.0000
     0.0000   0.0000

          k =-0.0626-0.1632 0.5983 (  1648 PWs)   bands (ev):

   -17.1674 -17.1296 -17.0758 -17.0290 -17.0089 -16.9668 -16.9591 -16.9245
   -16.8636 -16.8316  -1.9647  -0.0308   4.2177   4.6347   8.7396  10.4065
    13.8779  15.4258

     occupation numbers 
     1.0000   1.0000   1.0000   1.0000   1.0000   1.0000   1.0000   1.0000
     1.0000   1.0000   1.0000   1.0000   1.0000   1.0000   0.0000   0.0000
     0.0000   0.0000

          k =-0.0054-0.1088 0.5439 (  1649 PWs)   bands (ev):

   -17.1620 -17.1276 -17.0908 -17.0268 -17.0191 -16.9720 -16.9474 -16.9066
   -16.8669 -16.8384  -2.4930   0.5850   4.5578   4.9695   8.6214   9.5532
    14.2179  15.4140

     occupation numbers 
     1.0000   1.0000   1.0000   1.0000   1.0000   1.0000   1.0000   1.0000
     1.0000   1.0000   1.0000   1.0000   1.0000   1.0000   0.0000   0.0000
     0.0000   0.0000

          k = 0.1033-0.1088 0.5439 (  1644 PWs)   bands (ev):

   -17.1600 -17.1353 -17.0857 -17.0233 -17.0201 -16.9761 -16.9468 -16.9093
   -16.8604 -16.8407  -2.4807   0.5128   4.2413   5.3085   8.8788   9.7905
    13.9986  14.7115

     occupation numbers 
     1.0000   1.0000   1.0000   1.0000   1.0000   1.0000   1.0000   1.0000
     1.0000   1.0000   1.0000   1.0000   1.0000   1.0000   0.0000   0.0000
     0.0000   0.0000

          k = 0.1605-0.0544 0.4895 (  1648 PWs)   bands (ev):

   -17.1599 -17.1331 -17.0878 -17.0301 -17.0168 -16.9798 -16.9381 -16.9087
   -16.8633 -16.8415  -2.8181   0.9804   4.4424   5.2994   9.3545  10.1080
    12.8401  14.5318

     occupation numbers 
     1.0000   1.0000   1.0000   1.0000   1.0000   1.0000   1.0000   1.0000
     1.0000   1.0000   1.0000   1.0000   1.0000   1.0000   0.0000   0.0000
     0.0000   0.0000

          k =-0.0680-0.2720 0.7071 (  1647 PWs)   bands (ev):

   -17.1705 -17.1377 -17.0515 -17.0246 -16.9953 -16.9787 -16.9617 -16.9516
   -16.8559 -16.8276  -1.0020  -0.9960   3.7898   4.2762   9.7809  11.8394
    13.2493  13.3382

     occupation numbers 
     1.0000   1.0000   1.0000   1.0000   1.0000   1.0000   1.0000   1.0000
     1.0000   1.0000   1.0000   1.0000   1.0000   1.0000   0.0000   0.0000
     0.0000   0.0000

          k =-0.0109-0.2176 0.6527 (  1647 PWs)   bands (ev):

   -17.1680 -17.1378 -17.0567 -17.0359 -17.0019 -16.9680 -16.9613 -16.9391
   -16.8563 -16.8307  -1.5339  -0.4994   4.0419   4.3432   9.6092  10.4276
    13.6193  14.8279

     occupation numbers 
     1.0000   1.0000   1.0000   1.0000   1.0000   1.0000   1.0000   1.0000
     1.0000   1.0000   1.0000   1.0000   1.0000   1.0000   0.0000   0.0000
     0.0000   0.0000

          k = 0.0462-0.1632 0.5983 (  1651 PWs)   bands (ev):

   -17.1634 -17.1369 -17.0744 -17.0309 -17.0105 -16.9690 -16.9568 -16.9206
   -16.8579 -16.8361  -2.0435   0.0089   4.0682   4.9347   9.2394   9.6951
    13.9789  15.5542

     occupation numbers 
     1.0000   1.0000   1.0000   1.0000   1.0000   1.0000   1.0000   1.0000
     1.0000   1.0000   1.0000   1.0000   1.0000   1.0000   0.0000   0.0000
     0.0000   0.0000

          k =-0.5167 0.5439-0.1088 (  1649 PWs)   bands (ev):

   -17.1615 -17.1433 -17.0730 -17.0194 -17.0132 -16.9809 -16.9549 -16.9196
   -16.8527 -16.8385  -2.1102   0.0255   3.7770   5.3718   9.0234  10.7654
    13.8322  14.4911

     occupation numbers 
     1.0000   1.0000   1.0000   1.0000   1.0000   1.0000   1.0000   1.0000
     1.0000   1.0000   1.0000   1.0000   1.0000   1.0000   0.0000   0.0000
     0.0000   0.0000

          k =-0.4596 0.5983-0.1632 (  1650 PWs)   bands (ev):

   -17.1617 -17.1411 -17.0742 -17.0236 -17.0156 -16.9805 -16.9469 -16.9201
   -16.8553 -16.8387  -2.3897   0.3479   4.0150   5.2531   9.5774  10.8736
    12.6349  14.5128

     occupation numbers 
     1.0000   1.0000   1.0000   1.0000   1.0000   1.0000   1.0000   1.0000
     1.0000   1.0000   1.0000   1.0000   1.0000   1.0000   0.0000   0.0000
     0.0000   0.0000

          k =-0.4025 0.6527-0.2176 (  1648 PWs)   bands (ev):

   -17.1633 -17.1384 -17.0712 -17.0321 -17.0143 -16.9759 -16.9407 -16.9275
   -16.8580 -16.8370  -2.5917   0.6405   4.0131   5.3026  10.5773  10.7695
    11.8733  14.3714

     occupation numbers 
     1.0000   1.0000   1.0000   1.0000   1.0000   1.0000   1.0000   1.0000
     1.0000   1.0000   1.0000   1.0000   1.0000   1.0000   0.0000   0.0000
     0.0000   0.0000

          k =-0.6310 0.4351-0.0000 (  1643 PWs)   bands (ev):

   -17.1675 -17.1443 -17.0466 -17.0299 -17.0045 -16.9704 -16.9687 -16.9418
   -16.8508 -16.8312  -1.5033  -0.5220   3.7321   4.4278  10.5628  10.8288
    13.2978  13.5002

     occupation numbers 
     1.0000   1.0000   1.0000   1.0000   1.0000   1.0000   1.0000   1.0000
     1.0000   1.0000   1.0000   1.0000   1.0000   1.0000   0.0000   0.0000
     0.0000   0.0000

          k =-0.5738 0.4895-0.0544 (  1653 PWs)   bands (ev):

   -17.1641 -17.1444 -17.0632 -17.0238 -17.0064 -16.9773 -16.9627 -16.9281
   -16.8511 -16.8352  -1.7890  -0.2821   3.6511   5.0208   9.4440  10.7384
    13.7528  14.8357

     occupation numbers 
     1.0000   1.0000   1.0000   1.0000   1.0000   1.0000   1.0000   1.0000
     1.0000   1.0000   1.0000   1.0000   1.0000   1.0000   0.0000   0.0000
     0.0000   0.0000

          k =-0.4651 0.4895-0.0544 (  1638 PWs)   bands (ev):

   -17.1622 -17.1482 -17.0664 -17.0114 -17.0084 -16.9926 -16.9583 -16.9236
   -16.8484 -16.8376  -2.1027   0.0173   3.4900   5.5483   9.1722  12.0446
    13.7576  14.1000

     occupation numbers 
     1.0000   1.0000   1.0000   1.0000   1.0000   1.0000   1.0000   1.0000
     1.0000   1.0000   1.0000   1.0000   1.0000   1.0000   0.0000   0.0000
     0.0000   0.0000

          k =-0.4079 0.5439-0.1088 (  1650 PWs)   bands (ev):

   -17.1627 -17.1463 -17.0649 -17.0219 -17.0103 -16.9850 -16.9526 -16.9258
   -16.8504 -16.8373  -2.1963   0.0906   3.7161   5.3356   9.6924  11.8988
    12.6697  14.2102

     occupation numbers 
     1.0000   1.0000   1.0000   1.0000   1.0000   1.0000   1.0000   1.0000
     1.0000   1.0000   1.0000   1.0000   1.0000   1.0000   0.0000   0.0000
     0.0000   0.0000

          k =-0.3508 0.5983-0.1632 (  1645 PWs)   bands (ev):

   -17.1645 -17.1433 -17.0612 -17.0288 -17.0112 -16.9792 -16.9480 -16.9327
   -16.8532 -16.8352  -2.2634   0.1831   3.8499   5.1372  10.5259  11.1697
    12.5352  14.2108

     occupation numbers 
     1.0000   1.0000   1.0000   1.0000   1.0000   1.0000   1.0000   1.0000
     1.0000   1.0000   1.0000   1.0000   1.0000   1.0000   0.0000   0.0000
     0.0000   0.0000

          k =-0.2937 0.6527-0.2176 (  1651 PWs)   bands (ev):

   -17.1654 -17.1406 -17.0633 -17.0251 -17.0116 -16.9738 -16.9545 -16.9340
   -16.8554 -16.8338  -2.2885   0.2697   3.6370   5.4320   9.6191  12.3949
    12.7969  14.0280

     occupation numbers 
     1.0000   1.0000   1.0000   1.0000   1.0000   1.0000   1.0000   1.0000
     1.0000   1.0000   1.0000   1.0000   1.0000   1.0000   0.0000   0.0000
     0.0000   0.0000

          k =-0.5222 0.4351-0.0000 (  1638 PWs)   bands (ev):

   -17.1638 -17.1484 -17.0604 -17.0122 -17.0052 -16.9938 -16.9608 -16.9284
   -16.8479 -16.8357  -1.9971  -0.0516   3.4584   5.2303   9.6397  12.0734
    13.4786  13.7033

     occupation numbers 
     1.0000   1.0000   1.0000   1.0000   1.0000   1.0000   1.0000   1.0000
     1.0000   1.0000   1.0000   1.0000   1.0000   1.0000   0.0000   0.0000
     0.0000   0.0000

          k =-0.4134 0.4351-0.0000 (  1644 PWs)   bands (ev):

   -17.1619 -17.1491 -17.0641 -17.0199 -17.0165 -16.9814 -16.9550 -16.9232
   -16.8485 -16.8383  -2.4577   0.4401   3.4828   5.8212   9.3881  13.1418
    13.5009  13.5612

     occupation numbers 
     1.0000   1.0000   1.0000   1.0000   1.0000   1.0000   1.0000   1.0000
     1.0000   1.0000   1.0000   1.0000   1.0000   1.0000   0.0000   0.0000
     0.0000   0.0000

          k =-0.3563 0.4895-0.0544 (  1645 PWs)   bands (ev):

   -17.1626 -17.1482 -17.0612 -17.0277 -17.0107 -16.9828 -16.9517 -16.9261
   -16.8493 -16.8376  -2.4204   0.3833   3.6115   5.5403   9.8696  12.1440
    13.4101  13.5623

     occupation numbers 
     1.0000   1.0000   1.0000   1.0000   1.0000   1.0000   1.0000   1.0000
     1.0000   1.0000   1.0000   1.0000   1.0000   1.0000   0.0000   0.0000
     0.0000   0.0000

          k =-0.2992 0.5439-0.1088 (  1646 PWs)   bands (ev):

   -17.1642 -17.1455 -17.0581 -17.0317 -17.0067 -16.9853 -16.9467 -16.9320
   -16.8517 -16.8356  -2.3143   0.2494   3.8293   5.1299  10.4946  11.2741
    13.1633  13.6380

     occupation numbers 
     1.0000   1.0000   1.0000   1.0000   1.0000   1.0000   1.0000   1.0000
     1.0000   1.0000   1.0000   1.0000   1.0000   1.0000   0.0000   0.0000
     0.0000   0.0000

          k =-0.2420 0.5983-0.1632 (  1645 PWs)   bands (ev):

   -17.1654 -17.1424 -17.0626 -17.0219 -17.0057 -16.9868 -16.9522 -16.9323
   -16.8541 -16.8337  -2.1534   0.0926   3.7203   5.2017   9.4743  12.4764
    13.0485  13.6777

     occupation numbers 
     1.0000   1.0000   1.0000   1.0000   1.0000   1.0000   1.0000   1.0000
     1.0000   1.0000   1.0000   1.0000   1.0000   1.0000   0.0000   0.0000
     0.0000   0.0000

          k =-0.1849 0.6527-0.2176 (  1643 PWs)   bands (ev):

   -17.1648 -17.1417 -17.0654 -17.0083 -17.0055 -16.9875 -16.9639 -16.9319
   -16.8541 -16.8334  -1.9592  -0.0721   3.4886   5.3821   8.9338  12.6911
    13.5166  14.2047

     occupation numbers 
     1.0000   1.0000   1.0000   1.0000   1.0000   1.0000   1.0000   1.0000
     1.0000   1.0000   1.0000   1.0000   1.0000   1.0000   0.0000   0.0000
     0.0000   0.0000

          k =-0.1278 0.7071-0.2720 (  1647 PWs)   bands (ev):

   -17.1622 -17.1452 -17.0611 -17.0120 -16.9948 -16.9880 -16.9704 -16.9363
   -16.8507 -16.8353  -1.7644  -0.2444   3.4663   5.0982   9.3238  12.6244
    13.2911  13.5408

     occupation numbers 
     1.0000   1.0000   1.0000   1.0000   1.0000   1.0000   1.0000   1.0000
     1.0000   1.0000   1.0000   1.0000   1.0000   1.0000   0.0000   0.0000
     0.0000   0.0000

          k =-0.3046 0.4351-0.0000 (  1635 PWs)   bands (ev):

   -17.1612 -17.1463 -17.0617 -17.0418 -17.0188 -16.9717 -16.9428 -16.9231
   -16.8525 -16.8395  -2.8504   0.9581   3.7832   5.8364  10.0722  11.8500
    12.6475  13.7566

     occupation numbers 
     1.0000   1.0000   1.0000   1.0000   1.0000   1.0000   1.0000   1.0000
     1.0000   1.0000   1.0000   1.0000   1.0000   1.0000   0.0000   0.0000
     0.0000   0.0000

          k =-0.2475 0.4895-0.0544 (  1640 PWs)   bands (ev):

   -17.1622 -17.1448 -17.0628 -17.0387 -17.0078 -16.9857 -16.9377 -16.9273
   -16.8534 -16.8382  -2.6925   0.7769   3.9633   5.2860  10.4843  11.2473
    12.1757  14.2474

     occupation numbers 
     1.0000   1.0000   1.0000   1.0000   1.0000   1.0000   1.0000   1.0000
     1.0000   1.0000   1.0000   1.0000   1.0000   1.0000   0.0000   0.0000
     0.0000   0.0000

          k =-0.1904 0.5439-0.1088 (  1639 PWs)   bands (ev):

   -17.1628 -17.1422 -17.0687 -17.0269 -17.0009 -16.9948 -16.9442 -16.9252
   -16.8552 -16.8367  -2.4308   0.4560   4.0035   5.0962   9.3844  11.5173
    12.9074  14.2605

     occupation numbers 
     1.0000   1.0000   1.0000   1.0000   1.0000   1.0000   1.0000   1.0000
     1.0000   1.0000   1.0000   1.0000   1.0000   1.0000   0.0000   0.0000
     0.0000   0.0000

          k =-0.1333 0.5983-0.1632 (  1642 PWs)   bands (ev):

   -17.1624 -17.1414 -17.0701 -17.0149 -17.0079 -16.9871 -16.9559 -16.9261
   -16.8549 -16.8359  -2.0785   0.0641   3.7710   5.1922   8.7907  11.3445
    13.8283  14.5703

     occupation numbers 
     1.0000   1.0000   1.0000   1.0000   1.0000   1.0000   1.0000   1.0000
     1.0000   1.0000   1.0000   1.0000   1.0000   1.0000   0.0000   0.0000
     0.0000   0.0000

          k =-0.0761 0.6527-0.2176 (  1641 PWs)   bands (ev):

   -17.1609 -17.1451 -17.0623 -17.0197 -16.9998 -16.9782 -16.9679 -16.9344
   -16.8508 -16.8364  -1.6610  -0.3610   3.6555   4.9005   9.1139  11.2630
    13.5805  14.8456

     occupation numbers 
     1.0000   1.0000   1.0000   1.0000   1.0000   1.0000   1.0000   1.0000
     1.0000   1.0000   1.0000   1.0000   1.0000   1.0000   0.0000   0.0000
     0.0000   0.0000

          k =-0.0190 0.7071-0.2720 (  1648 PWs)   bands (ev):

   -17.1579 -17.1516 -17.0477 -17.0276 -16.9912 -16.9832 -16.9650 -16.9476
   -16.8446 -16.8388  -1.2547  -0.7504   3.7642   4.3546  10.1386  11.3003
    13.2786  13.3608

     occupation numbers 
     1.0000   1.0000   1.0000   1.0000   1.0000   1.0000   1.0000   1.0000
     1.0000   1.0000   1.0000   1.0000   1.0000   1.0000   0.0000   0.0000
     0.0000   0.0000

          k =-0.1958 0.4351-0.0000 (  1640 PWs)   bands (ev):

   -17.1591 -17.1412 -17.0734 -17.0460 -17.0148 -16.9797 -16.9257 -16.9197
   -16.8586 -16.8423  -3.1405   1.4560   4.3052   5.5554  10.2771  10.8079
    12.1002  14.0351

     occupation numbers 
     1.0000   1.0000   1.0000   1.0000   1.0000   1.0000   1.0000   1.0000
     1.0000   1.0000   1.0000   1.0000   1.0000   1.0000   0.0000   0.0000
     0.0000   0.0000

          k =-0.1387 0.4895-0.0544 (  1644 PWs)   bands (ev):

   -17.1583 -17.1401 -17.0800 -17.0341 -17.0000 -16.9973 -16.9350 -16.9135
   -16.8585 -16.8424  -2.8762   1.1070   4.4340   5.1405   9.2891  10.5365
    13.1450  14.4476

     occupation numbers 
     1.0000   1.0000   1.0000   1.0000   1.0000   1.0000   1.0000   1.0000
     1.0000   1.0000   1.0000   1.0000   1.0000   1.0000   0.0000   0.0000
     0.0000   0.0000

          k =-0.0816 0.5439-0.1088 (  1648 PWs)   bands (ev):

   -17.1571 -17.1399 -17.0814 -17.0219 -17.0129 -16.9846 -16.9464 -16.9139
   -16.8574 -16.8420  -2.4948   0.5960   4.2622   5.1143   8.6954  10.2286
    14.1137  14.7841

     occupation numbers 
     1.0000   1.0000   1.0000   1.0000   1.0000   1.0000   1.0000   1.0000
     1.0000   1.0000   1.0000   1.0000   1.0000   1.0000   0.0000   0.0000
     0.0000   0.0000

          k =-0.0245 0.5983-0.1632 (  1652 PWs)   bands (ev):

   -17.1558 -17.1441 -17.0726 -17.0266 -17.0076 -16.9729 -16.9584 -16.9242
   -16.8523 -16.8418  -2.0121   0.0197   4.0938   4.8269   8.9639  10.0613
    13.8890  15.6885

     occupation numbers 
     1.0000   1.0000   1.0000   1.0000   1.0000   1.0000   1.0000   1.0000
     1.0000   1.0000   1.0000   1.0000   1.0000   1.0000   0.0000   0.0000
     0.0000   0.0000

          k = 0.0326 0.6527-0.2176 (  1658 PWs)   bands (ev):

   -17.1541 -17.1513 -17.0556 -17.0346 -16.9960 -16.9754 -16.9599 -16.9410
   -16.8451 -16.8425  -1.4667  -0.5563   4.0667   4.3201   9.9033  10.0765
    13.5867  14.7830

     occupation numbers 
     1.0000   1.0000   1.0000   1.0000   1.0000   1.0000   1.0000   1.0000
     1.0000   1.0000   1.0000   1.0000   1.0000   1.0000   0.0000   0.0000
     0.0000   0.0000

          k =-0.0870 0.4351-0.0000 (  1647 PWs)   bands (ev):

   -17.1531 -17.1363 -17.0922 -17.0419 -17.0065 -16.9910 -16.9261 -16.9010
   -16.8639 -16.8491  -3.3019   1.8195   4.9308   5.3347   8.9878  10.1762
    13.3801  14.1658

     occupation numbers 
     1.0000   1.0000   1.0000   1.0000   1.0000   1.0000   1.0000   1.0000
     1.0000   1.0000   1.0000   1.0000   1.0000   1.0000   0.0000   0.0000
     0.0000   0.0000

          k =-0.0299 0.4895-0.0544 (  1655 PWs)   bands (ev):

   -17.1500 -17.1377 -17.0953 -17.0299 -17.0088 -16.9897 -16.9372 -16.8991
   -16.8611 -16.8507  -2.9428   1.2553   4.8493   5.1549   8.4988   9.6631
    14.3543  14.7177

     occupation numbers 
     1.0000   1.0000   1.0000   1.0000   1.0000   1.0000   1.0000   1.0000
     1.0000   1.0000   1.0000   1.0000   1.0000   1.0000   0.0000   0.0000
     0.0000   0.0000

          k = 0.0272 0.5439-0.1088 (  1650 PWs)   bands (ev):

   -17.1483 -17.1423 -17.0888 -17.0234 -17.0160 -16.9764 -16.9492 -16.9081
   -16.8550 -16.8500  -2.4711   0.5822   4.6224   4.8950   8.6986   9.4325
    14.1449  15.3516

     occupation numbers 
     1.0000   1.0000   1.0000   1.0000   1.0000   1.0000   1.0000   1.0000
     1.0000   1.0000   1.0000   1.0000   1.0000   1.0000   0.0000   0.0000
     0.0000   0.0000

          k = 0.0843 0.5983-0.1632 (  1651 PWs)   bands (ev):

   -17.1502 -17.1474 -17.0745 -17.0289 -17.0049 -16.9706 -16.9599 -16.9239
   -16.8494 -16.8464  -1.9292  -0.0796   4.2008   4.7257   9.0277   9.9282
    13.8628  15.2167

     occupation numbers 
     1.0000   1.0000   1.0000   1.0000   1.0000   1.0000   1.0000   1.0000
     1.0000   1.0000   1.0000   1.0000   1.0000   1.0000   0.0000   0.0000
     0.0000   0.0000

          k =-0.6010-0.0544 0.4895 (  1647 PWs)   bands (ev):

   -17.1574 -17.1467 -17.0631 -17.0237 -16.9950 -16.9786 -16.9670 -16.9354
   -16.8492 -16.8394  -1.5189  -0.5172   3.7163   4.8340   9.1348  11.1751
    13.6411  14.4882

     occupation numbers 
     1.0000   1.0000   1.0000   1.0000   1.0000   1.0000   1.0000   1.0000
     1.0000   1.0000   1.0000   1.0000   1.0000   1.0000   0.0000   0.0000
     0.0000   0.0000

          k = 0.0272 0.5439-0.0000 (  1648 PWs)   bands (ev):

   -17.1444 -17.1408 -17.0961 -17.0269 -17.0172 -16.9721 -16.9491 -16.9003
   -16.8565 -16.8543  -2.5298   0.6483   4.9354   4.9425   8.1750   9.0540
    15.2858  15.4099

     occupation numbers 
     1.0000   1.0000   1.0000   1.0000   1.0000   1.0000   1.0000   1.0000
     1.0000   1.0000   1.0000   1.0000   1.0000   1.0000   0.0001   0.0000
     0.0000   0.0000

          k = 0.0843 0.5983-0.0544 (  1650 PWs)   bands (ev):

   -17.1462 -17.1424 -17.0867 -17.0383 -17.0047 -16.9624 -16.9590 -16.9123
   -16.8539 -16.8503  -2.0158  -0.0134   4.6149   4.8544   8.3759   8.9746
    15.0765  15.7281

     occupation numbers 
     1.0000   1.0000   1.0000   1.0000   1.0000   1.0000   1.0000   1.0000
     1.0000   1.0000   1.0000   1.0000   1.0000   1.0000   0.0000   0.0000
     0.0000   0.0000

          k =-0.6010-0.0544 0.5983 (  1658 PWs)   bands (ev):

   -17.1542 -17.1426 -17.0720 -17.0394 -16.9929 -16.9746 -16.9566 -16.9281
   -16.8527 -16.8425  -1.4791  -0.5967   4.0530   4.9039   8.5166   9.8147
    14.7520  15.5552

     occupation numbers 
     1.0000   1.0000   1.0000   1.0000   1.0000   1.0000   1.0000   1.0000
     1.0000   1.0000   1.0000   1.0000   1.0000   1.0000   0.0000   0.0000
     0.0000   0.0000

          k =-0.5439 0.0000 0.5439 (  1648 PWs)   bands (ev):

   -17.1612 -17.1426 -17.0655 -17.0234 -16.9927 -16.9775 -16.9711 -16.9329
   -16.8526 -16.8361  -1.4753  -0.5715   3.6019   5.0845   8.6716  11.1645
    14.3378  15.1042

     occupation numbers 
     1.0000   1.0000   1.0000   1.0000   1.0000   1.0000   1.0000   1.0000
     1.0000   1.0000   1.0000   1.0000   1.0000   1.0000   0.0000   0.0000
     0.0000   0.0000

          k = 0.1360 0.5439-0.0000 (  1650 PWs)   bands (ev):

   -17.1468 -17.1382 -17.0949 -17.0228 -17.0144 -16.9734 -16.9527 -16.9050
   -16.8581 -16.8508  -2.4003   0.4898   4.6425   4.9363   8.6721   9.3051
    13.7822  15.3851

     occupation numbers 
     1.0000   1.0000   1.0000   1.0000   1.0000   1.0000   1.0000   1.0000
     1.0000   1.0000   1.0000   1.0000   1.0000   1.0000   0.0000   0.0000
     0.0000   0.0000

          k =-0.5494-0.1088 0.6527 (  1652 PWs)   bands (ev):

   -17.1547 -17.1399 -17.0786 -17.0279 -17.0025 -16.9669 -16.9650 -16.9227
   -16.8552 -16.8424  -1.8560  -0.1618   4.1539   4.8078   8.9583   9.8972
    13.4571  15.6370

     occupation numbers 
     1.0000   1.0000   1.0000   1.0000   1.0000   1.0000   1.0000   1.0000
     1.0000   1.0000   1.0000   1.0000   1.0000   1.0000   0.0000   0.0000
     0.0000   0.0000

          k =-0.4923-0.0544 0.5983 (  1644 PWs)   bands (ev):

   -17.1617 -17.1413 -17.0653 -17.0222 -16.9936 -16.9767 -16.9708 -16.9348
   -16.8536 -16.8356  -1.4770  -0.5575   3.6857   4.8730   9.0957  11.1666
    13.1619  15.1832

     occupation numbers 
     1.0000   1.0000   1.0000   1.0000   1.0000   1.0000   1.0000   1.0000
     1.0000   1.0000   1.0000   1.0000   1.0000   1.0000   0.0000   0.0000
     0.0000   0.0000

          k =-0.4351 0.0000 0.5439 (  1646 PWs)   bands (ev):

   -17.1656 -17.1417 -17.0612 -17.0099 -17.0024 -16.9824 -16.9707 -16.9362
   -16.8536 -16.8324  -1.7773  -0.2303   3.4664   5.0914   9.3284  12.5654
    13.0321  13.9374

     occupation numbers 
     1.0000   1.0000   1.0000   1.0000   1.0000   1.0000   1.0000   1.0000
     1.0000   1.0000   1.0000   1.0000   1.0000   1.0000   0.0000   0.0000
     0.0000   0.0000

          k =-0.4977-0.1632 0.7071 (  1649 PWs)   bands (ev):

   -17.1564 -17.1374 -17.0812 -17.0121 -17.0112 -16.9795 -16.9578 -16.9223
   -16.8573 -16.8415  -2.1638   0.2270   4.0824   4.8704   9.8885  10.1487
    12.1687  15.2728

     occupation numbers 
     1.0000   1.0000   1.0000   1.0000   1.0000   1.0000   1.0000   1.0000
     1.0000   1.0000   1.0000   1.0000   1.0000   1.0000   0.0000   0.0000
     0.0000   0.0000

          k =-0.4406-0.1088 0.6527 (  1645 PWs)   bands (ev):

   -17.1633 -17.1395 -17.0650 -17.0138 -17.0003 -16.9751 -16.9716 -16.9378
   -16.8549 -16.8342  -1.6531  -0.3394   3.7690   4.6437  10.1057  11.1635
    11.9270  15.0864

     occupation numbers 
     1.0000   1.0000   1.0000   1.0000   1.0000   1.0000   1.0000   1.0000
     1.0000   1.0000   1.0000   1.0000   1.0000   1.0000   0.0000   0.0000
     0.0000   0.0000

          k =-0.3835-0.0544 0.5983 (  1650 PWs)   bands (ev):

   -17.1672 -17.1403 -17.0569 -17.0120 -16.9991 -16.9804 -16.9723 -16.9423
   -16.8544 -16.8308  -1.6000  -0.3909   3.5917   4.6645  10.2820  11.4759
    12.8491  13.6951

     occupation numbers 
     1.0000   1.0000   1.0000   1.0000   1.0000   1.0000   1.0000   1.0000
     1.0000   1.0000   1.0000   1.0000   1.0000   1.0000   0.0000   0.0000
     0.0000   0.0000

          k =-0.3264 0.0000 0.5439 (  1650 PWs)   bands (ev):

   -17.1670 -17.1400 -17.0597 -17.0201 -17.0063 -16.9810 -16.9575 -16.9378
   -16.8554 -16.8318  -2.0735   0.1092   3.6509   4.9060  10.4983  11.3661
    12.2949  14.3115

     occupation numbers 
     1.0000   1.0000   1.0000   1.0000   1.0000   1.0000   1.0000   1.0000
     1.0000   1.0000   1.0000   1.0000   1.0000   1.0000   0.0000   0.0000
     0.0000   0.0000

          k =-0.3889-0.1632 0.7071 (  1647 PWs)   bands (ev):

   -17.1652 -17.1357 -17.0683 -17.0072 -16.9991 -16.9833 -16.9685 -16.9382
   -16.8578 -16.8327  -1.8513  -0.1081   3.6387   4.8873  10.2003  11.4590
    11.8755  14.8444

     occupation numbers 
     1.0000   1.0000   1.0000   1.0000   1.0000   1.0000   1.0000   1.0000
     1.0000   1.0000   1.0000   1.0000   1.0000   1.0000   0.0000   0.0000
     0.0000   0.0000

          k =-0.3318-0.1088 0.6527 (  1647 PWs)   bands (ev):

   -17.1692 -17.1365 -17.0595 -17.0064 -16.9959 -16.9844 -16.9736 -16.9443
   -16.8571 -16.8287  -1.4883  -0.4938   3.5969   4.6190  10.0076  11.8054
    13.0004  13.5007

     occupation numbers 
     1.0000   1.0000   1.0000   1.0000   1.0000   1.0000   1.0000   1.0000
     1.0000   1.0000   1.0000   1.0000   1.0000   1.0000   0.0000   0.0000
     0.0000   0.0000

          k =-0.2747-0.0544 0.5983 (  1653 PWs)   bands (ev):

   -17.1691 -17.1362 -17.0611 -17.0125 -17.0103 -16.9769 -16.9632 -16.9393
   -16.8580 -16.8294  -1.7889  -0.1852   3.7850   4.5710   9.8434  11.7910
    12.2468  14.4508

     occupation numbers 
     1.0000   1.0000   1.0000   1.0000   1.0000   1.0000   1.0000   1.0000
     1.0000   1.0000   1.0000   1.0000   1.0000   1.0000   0.0000   0.0000
     0.0000   0.0000

          k =-0.2176-0.0000 0.5439 (  1652 PWs)   bands (ev):

   -17.1654 -17.1350 -17.0735 -17.0213 -17.0152 -16.9787 -16.9493 -16.9246
   -16.8603 -16.8342  -2.3251   0.3977   4.0861   4.8259   9.7320  10.6258
    12.4966  15.2018

     occupation numbers 
     1.0000   1.0000   1.0000   1.0000   1.0000   1.0000   1.0000   1.0000
     1.0000   1.0000   1.0000   1.0000   1.0000   1.0000   0.0000   0.0000
     0.0000   0.0000

          k =-0.2801-0.1632 0.7071 (  1647 PWs)   bands (ev):

   -17.1705 -17.1316 -17.0669 -16.9979 -16.9922 -16.9860 -16.9821 -16.9403
   -16.8606 -16.8274  -1.5125  -0.4722   3.4695   4.9708   9.0684  13.1153
    13.2369  13.4725

     occupation numbers 
     1.0000   1.0000   1.0000   1.0000   1.0000   1.0000   1.0000   1.0000
     1.0000   1.0000   1.0000   1.0000   1.0000   1.0000   0.0000   0.0000
     0.0000   0.0000

          k =-0.2230-0.1088 0.6527 (  1649 PWs)   bands (ev):

   -17.1708 -17.1310 -17.0662 -17.0189 -16.9983 -16.9732 -16.9696 -16.9387
   -16.8615 -16.8273  -1.4525  -0.5544   3.7167   4.7201   8.8555  11.7563
    13.5262  14.5865

     occupation numbers 
     1.0000   1.0000   1.0000   1.0000   1.0000   1.0000   1.0000   1.0000
     1.0000   1.0000   1.0000   1.0000   1.0000   1.0000   0.0000   0.0000
     0.0000   0.0000

          k =-0.1659-0.0544 0.5983 (  1648 PWs)   bands (ev):

   -17.1673 -17.1295 -17.0758 -17.0289 -17.0089 -16.9669 -16.9591 -16.9246
   -16.8637 -16.8316  -1.9646  -0.0301   4.2194   4.6348   8.7369  10.4042
    13.8565  15.4356

     occupation numbers 
     1.0000   1.0000   1.0000   1.0000   1.0000   1.0000   1.0000   1.0000
     1.0000   1.0000   1.0000   1.0000   1.0000   1.0000   0.0000   0.0000
     0.0000   0.0000

          k =-0.1088 0.0000 0.5439 (  1649 PWs)   bands (ev):

   -17.1619 -17.1276 -17.0908 -17.0268 -17.0191 -16.9721 -16.9474 -16.9066
   -16.8669 -16.8384  -2.4930   0.5854   4.5592   4.9691   8.6200   9.5519
    14.1964  15.4346

     occupation numbers 
     1.0000   1.0000   1.0000   1.0000   1.0000   1.0000   1.0000   1.0000
     1.0000   1.0000   1.0000   1.0000   1.0000   1.0000   0.0000   0.0000
     0.0000   0.0000

          k = 0.0000 0.0000 0.5439 (  1648 PWs)   bands (ev):

   -17.1599 -17.1229 -17.0994 -17.0317 -17.0188 -16.9684 -16.9469 -16.8982
   -16.8708 -16.8408  -2.5518   0.6489   4.7259   5.1711   8.1299   9.1324
    15.4632  15.4870

     occupation numbers 
     1.0000   1.0000   1.0000   1.0000   1.0000   1.0000   1.0000   1.0000
     1.0000   1.0000   1.0000   1.0000   1.0000   1.0000   0.0002   0.0000
     0.0000   0.0000

          k =-0.1713-0.1632 0.7071 (  1650 PWs)   bands (ev):

   -17.1715 -17.1283 -17.0693 -17.0211 -16.9899 -16.9794 -16.9682 -16.9380
   -16.8631 -16.8266  -1.1976  -0.8251   3.6433   4.8940   8.4468  11.7051
    14.4196  14.8489

     occupation numbers 
     1.0000   1.0000   1.0000   1.0000   1.0000   1.0000   1.0000   1.0000
     1.0000   1.0000   1.0000   1.0000   1.0000   1.0000   0.0000   0.0000
     0.0000   0.0000

          k =-0.1142-0.1088 0.6527 (  1652 PWs)   bands (ev):

   -17.1685 -17.1271 -17.0732 -17.0399 -16.9982 -16.9690 -16.9546 -16.9306
   -16.8645 -16.8300  -1.5263  -0.5331   4.1379   4.7042   8.2857  10.2853
    15.0039  15.5331

     occupation numbers 
     1.0000   1.0000   1.0000   1.0000   1.0000   1.0000   1.0000   1.0000
     1.0000   1.0000   1.0000   1.0000   1.0000   1.0000   0.0000   0.0000
     0.0000   0.0000

          k =-0.0571-0.0544 0.5983 (  1648 PWs)   bands (ev):

   -17.1635 -17.1252 -17.0872 -17.0409 -17.0084 -16.9587 -16.9575 -16.9119
   -16.8672 -16.8359  -2.0761   0.0453   4.6468   4.7695   8.2021   9.2902
    15.4013  15.7909

     occupation numbers 
     1.0000   1.0000   1.0000   1.0000   1.0000   1.0000   1.0000   1.0000
     1.0000   1.0000   1.0000   1.0000   1.0000   1.0000   0.0000   0.0000
     0.0000   0.0000

          k = 0.0517-0.0544 0.5983 (  1648 PWs)   bands (ev):

   -17.1615 -17.1293 -17.0862 -17.0412 -17.0089 -16.9597 -16.9568 -16.9105
   -16.8642 -16.8382  -2.1009   0.0540   4.4132   5.0918   8.4091   8.9768
    15.5265  15.7772

     occupation numbers 
     1.0000   1.0000   1.0000   1.0000   1.0000   1.0000   1.0000   1.0000
     1.0000   1.0000   1.0000   1.0000   1.0000   1.0000   0.0000   0.0000
     0.0000   0.0000

          k =-0.0626-0.1632 0.7071 (  1650 PWs)   bands (ev):

   -17.1687 -17.1311 -17.0628 -17.0450 -16.9936 -16.9742 -16.9462 -16.9428
   -16.8613 -16.8297  -1.1470  -0.9225   4.1423   4.4735   8.6453  10.2927
    14.9263  15.1617

     occupation numbers 
     1.0000   1.0000   1.0000   1.0000   1.0000   1.0000   1.0000   1.0000
     1.0000   1.0000   1.0000   1.0000   1.0000   1.0000   0.0000   0.0000
     0.0000   0.0000

          k =-0.0054-0.1088 0.6527 (  1648 PWs)   bands (ev):

   -17.1644 -17.1305 -17.0730 -17.0506 -16.9996 -16.9665 -16.9502 -16.9242
   -16.8622 -16.8344  -1.6214  -0.4816   4.3673   4.7348   8.5327   9.2040
    15.4027  16.1419

     occupation numbers 
     1.0000   1.0000   1.0000   1.0000   1.0000   1.0000   1.0000   1.0000
     1.0000   1.0000   1.0000   1.0000   1.0000   1.0000   0.0000   0.0000
     0.0000   0.0000

          k =-0.5684 0.5983-0.0544 (  1652 PWs)   bands (ev):

   -17.1624 -17.1381 -17.0716 -17.0410 -17.0020 -16.9645 -16.9615 -16.9217
   -16.8563 -16.8368  -1.7040  -0.4024   3.9332   5.1323   8.7850   9.4760
    15.2917  15.5885

     occupation numbers 
     1.0000   1.0000   1.0000   1.0000   1.0000   1.0000   1.0000   1.0000
     1.0000   1.0000   1.0000   1.0000   1.0000   1.0000   0.0000   0.0000
     0.0000   0.0000

          k =-0.5113 0.6527-0.1088 (  1652 PWs)   bands (ev):

   -17.1634 -17.1369 -17.0744 -17.0308 -17.0105 -16.9690 -16.9569 -16.9206
   -16.8579 -16.8362  -2.0434   0.0095   4.0692   4.9356   9.2366   9.6928
    13.9572  15.5640

     occupation numbers 
     1.0000   1.0000   1.0000   1.0000   1.0000   1.0000   1.0000   1.0000
     1.0000   1.0000   1.0000   1.0000   1.0000   1.0000   0.0000   0.0000
     0.0000   0.0000

          k =-0.6255 0.5439-0.0000 (  1651 PWs)   bands (ev):

   -17.1646 -17.1384 -17.0616 -17.0461 -16.9980 -16.9693 -16.9575 -16.9302
   -16.8557 -16.8342  -1.4410  -0.6597   3.9380   4.8146   9.2595   9.4731
    15.1031  15.2143

     occupation numbers 
     1.0000   1.0000   1.0000   1.0000   1.0000   1.0000   1.0000   1.0000
     1.0000   1.0000   1.0000   1.0000   1.0000   1.0000   0.0000   0.0000
     0.0000   0.0000

          k =-0.5167 0.5439-0.0000 (  1652 PWs)   bands (ev):

   -17.1627 -17.1450 -17.0666 -17.0246 -17.0027 -16.9777 -16.9652 -16.9246
   -16.8504 -16.8366  -1.7220  -0.3730   3.5599   5.2893   8.9413  10.6738
    14.8832  15.0040

     occupation numbers 
     1.0000   1.0000   1.0000   1.0000   1.0000   1.0000   1.0000   1.0000
     1.0000   1.0000   1.0000   1.0000   1.0000   1.0000   0.0000   0.0000
     0.0000   0.0000

          k =-0.4596 0.5983-0.0544 (  1653 PWs)   bands (ev):

   -17.1640 -17.1444 -17.0631 -17.0237 -17.0063 -16.9774 -16.9628 -16.9281
   -16.8511 -16.8353  -1.7885  -0.2816   3.6515   5.0227   9.4397  10.7356
    13.7318  14.8241

     occupation numbers 
     1.0000   1.0000   1.0000   1.0000   1.0000   1.0000   1.0000   1.0000
     1.0000   1.0000   1.0000   1.0000   1.0000   1.0000   0.0000   0.0000
     0.0000   0.0000

          k =-0.4025 0.6527-0.1088 (  1648 PWs)   bands (ev):

   -17.1664 -17.1425 -17.0579 -17.0202 -17.0118 -16.9785 -16.9580 -16.9354
   -16.8530 -16.8328  -1.9322  -0.0787   3.7916   4.6721  10.5847  10.9002
    12.2556  14.5832

     occupation numbers 
     1.0000   1.0000   1.0000   1.0000   1.0000   1.0000   1.0000   1.0000
     1.0000   1.0000   1.0000   1.0000   1.0000   1.0000   0.0000   0.0000
     0.0000   0.0000

          k =-0.4079 0.5439-0.0000 (  1638 PWs)   bands (ev):

   -17.1638 -17.1484 -17.0604 -17.0120 -17.0049 -16.9941 -16.9609 -16.9284
   -16.8479 -16.8358  -1.9963  -0.0511   3.4581   5.2329   9.6342  12.0695
    13.4581  13.6884

     occupation numbers 
     1.0000   1.0000   1.0000   1.0000   1.0000   1.0000   1.0000   1.0000
     1.0000   1.0000   1.0000   1.0000   1.0000   1.0000   0.0000   0.0000
     0.0000   0.0000

          k =-0.3508 0.5983-0.0544 (  1641 PWs)   bands (ev):

   -17.1660 -17.1470 -17.0506 -17.0189 -17.0080 -16.9864 -16.9599 -16.9373
   -16.8490 -16.8331  -1.8926  -0.1246   3.6181   4.7196  10.7641  11.7909
    12.4427  13.2531

     occupation numbers 
     1.0000   1.0000   1.0000   1.0000   1.0000   1.0000   1.0000   1.0000
     1.0000   1.0000   1.0000   1.0000   1.0000   1.0000   0.0000   0.0000
     0.0000   0.0000

          k =-0.2937 0.6527-0.1088 (  1651 PWs)   bands (ev):

   -17.1670 -17.1444 -17.0512 -17.0158 -17.0087 -16.9830 -16.9619 -16.9412
   -16.8513 -16.8317  -1.8118  -0.1898   3.6291   4.6614  10.4171  12.2239
    12.6154  13.0033

     occupation numbers 
     1.0000   1.0000   1.0000   1.0000   1.0000   1.0000   1.0000   1.0000
     1.0000   1.0000   1.0000   1.0000   1.0000   1.0000   0.0000   0.0000
     0.0000   0.0000

          k =-0.2992 0.5439-0.0000 (  1639 PWs)   bands (ev):

   -17.1645 -17.1479 -17.0531 -17.0275 -16.9984 -16.9962 -16.9519 -16.9334
   -16.8490 -16.8352  -2.2466   0.2767   3.6501   4.9459  10.9523  11.5580
    12.2193  13.7276

     occupation numbers 
     1.0000   1.0000   1.0000   1.0000   1.0000   1.0000   1.0000   1.0000
     1.0000   1.0000   1.0000   1.0000   1.0000   1.0000   0.0000   0.0000
     0.0000   0.0000

          k =-0.2420 0.5983-0.0544 (  1646 PWs)   bands (ev):

   -17.1650 -17.1460 -17.0532 -17.0195 -17.0113 -16.9845 -16.9556 -16.9372
   -16.8503 -16.8340  -2.0037   0.0242   3.8037   4.5973  10.2821  11.4962
    12.6037  13.9256

     occupation numbers 
     1.0000   1.0000   1.0000   1.0000   1.0000   1.0000   1.0000   1.0000
     1.0000   1.0000   1.0000   1.0000   1.0000   1.0000   0.0000   0.0000
     0.0000   0.0000

          k =-0.1849 0.6527-0.1088 (  1642 PWs)   bands (ev):

   -17.1638 -17.1432 -17.0606 -17.0199 -17.0045 -16.9772 -16.9652 -16.9347
   -16.8523 -16.8343  -1.7157  -0.3046   3.6817   4.8547   9.1575  11.2783
    14.1371  14.1727

     occupation numbers 
     1.0000   1.0000   1.0000   1.0000   1.0000   1.0000   1.0000   1.0000
     1.0000   1.0000   1.0000   1.0000   1.0000   1.0000   0.0000   0.0000
     0.0000   0.0000

          k =-0.1904 0.5439-0.0000 (  1647 PWs)   bands (ev):

   -17.1617 -17.1445 -17.0656 -17.0263 -17.0076 -16.9897 -16.9451 -16.9264
   -16.8526 -16.8381  -2.4391   0.5425   4.0869   4.7766   9.9882  10.5997
    12.8716  14.8939

     occupation numbers 
     1.0000   1.0000   1.0000   1.0000   1.0000   1.0000   1.0000   1.0000
     1.0000   1.0000   1.0000   1.0000   1.0000   1.0000   0.0000   0.0000
     0.0000   0.0000

          k =-0.1333 0.5983-0.0544 (  1649 PWs)   bands (ev):

   -17.1595 -17.1429 -17.0694 -17.0259 -17.0120 -16.9735 -16.9562 -16.9248
   -16.8533 -16.8391  -2.0832   0.1018   4.1348   4.7433   9.0331  10.1013
    14.3960  15.1533

     occupation numbers 
     1.0000   1.0000   1.0000   1.0000   1.0000   1.0000   1.0000   1.0000
     1.0000   1.0000   1.0000   1.0000   1.0000   1.0000   0.0000   0.0000
     0.0000   0.0000

          k =-0.0761 0.6527-0.1088 (  1652 PWs)   bands (ev):

   -17.1569 -17.1426 -17.0689 -17.0384 -16.9984 -16.9695 -16.9598 -16.9281
   -16.8528 -16.8404  -1.6390  -0.4204   4.0121   4.9193   8.5194   9.8977
    15.1151  15.8137

     occupation numbers 
     1.0000   1.0000   1.0000   1.0000   1.0000   1.0000   1.0000   1.0000
     1.0000   1.0000   1.0000   1.0000   1.0000   1.0000   0.0000   0.0000
     0.0000   0.0000

          k =-0.0190 0.7071-0.1632 (  1653 PWs)   bands (ev):

   -17.1543 -17.1470 -17.0603 -17.0444 -16.9868 -16.9814 -16.9524 -16.9378
   -16.8488 -16.8422  -1.1832  -0.8885   4.0391   4.6410   8.9282   9.8585
    14.9670  15.1149

     occupation numbers 
     1.0000   1.0000   1.0000   1.0000   1.0000   1.0000   1.0000   1.0000
     1.0000   1.0000   1.0000   1.0000   1.0000   1.0000   0.0000   0.0000
     0.0000   0.0000

          k =-0.0816 0.5439-0.0000 (  1652 PWs)   bands (ev):

   -17.1543 -17.1407 -17.0839 -17.0209 -17.0204 -16.9791 -16.9463 -16.9104
   -16.8564 -16.8453  -2.5407   0.6739   4.6349   4.8172   8.7375   9.5527
    14.6401  15.3200

     occupation numbers 
     1.0000   1.0000   1.0000   1.0000   1.0000   1.0000   1.0000   1.0000
     1.0000   1.0000   1.0000   1.0000   1.0000   1.0000   0.0000   0.0000
     0.0000   0.0000

          k =-0.0245 0.5983-0.0544 (  1653 PWs)   bands (ev):

   -17.1505 -17.1418 -17.0826 -17.0376 -17.0076 -16.9628 -16.9581 -16.9139
   -16.8544 -16.8472  -2.0936   0.0827   4.5537   4.8698   8.3653   9.0879
    15.5066  15.9478

     occupation numbers 
     1.0000   1.0000   1.0000   1.0000   1.0000   1.0000   1.0000   1.0000
     1.0000   1.0000   1.0000   1.0000   1.0000   1.0000   0.0000   0.0000
     0.0000   0.0000

          k = 0.0326 0.6527-0.1088 (  1654 PWs)   bands (ev):

   -17.1485 -17.1466 -17.0712 -17.0484 -16.9948 -16.9720 -16.9500 -16.9269
   -16.8493 -16.8478  -1.5573  -0.5291   4.5011   4.5919   8.7221   8.9719
    15.3333  16.0343

     occupation numbers 
     1.0000   1.0000   1.0000   1.0000   1.0000   1.0000   1.0000   1.0000
     1.0000   1.0000   1.0000   1.0000   1.0000   1.0000   0.0000   0.0000
     0.0000   0.0000

          k = 0.0326 0.6527-0.0000 (  1644 PWs)   bands (ev):

   -17.1452 -17.1441 -17.0782 -17.0545 -16.9945 -16.9713 -16.9450 -16.9204
   -16.8514 -16.8508  -1.5917  -0.5245   4.7484   4.7512   8.2323   8.5292
    16.2939  16.3810

     occupation numbers 
     1.0000   1.0000   1.0000   1.0000   1.0000   1.0000   1.0000   1.0000
     1.0000   1.0000   1.0000   1.0000   1.0000   1.0000   0.0000   0.0000
     0.0000   0.0000

          k =-0.6527 0.0000 0.6527 (  1646 PWs)   bands (ev):

   -17.1495 -17.1433 -17.0668 -17.0604 -16.9847 -16.9814 -16.9382 -16.9324
   -16.8518 -16.8467  -1.1272  -1.0008   4.4768   4.7687   8.3865   8.7835
    15.9433  16.4660

     occupation numbers 
     1.0000   1.0000   1.0000   1.0000   1.0000   1.0000   1.0000   1.0000
     1.0000   1.0000   1.0000   1.0000   1.0000   1.0000   0.0000   0.0000
     0.0000   0.0000

          k =-0.6010-0.0544 0.7071 (  1648 PWs)   bands (ev):

   -17.1516 -17.1417 -17.0740 -17.0479 -16.9920 -16.9747 -16.9487 -16.9267
   -16.8533 -16.8449  -1.4741  -0.6200   4.4778   4.6360   8.7469   8.8975
    14.8625  16.4012

     occupation numbers 
     1.0000   1.0000   1.0000   1.0000   1.0000   1.0000   1.0000   1.0000
     1.0000   1.0000   1.0000   1.0000   1.0000   1.0000   0.0000   0.0000
     0.0000   0.0000

          k =-0.5439 0.0000 0.6527 (  1647 PWs)   bands (ev):

   -17.1584 -17.1428 -17.0604 -17.0442 -16.9892 -16.9789 -16.9527 -16.9378
   -16.8521 -16.8387  -1.2250  -0.8448   4.0341   4.6416   8.9270   9.8639
    14.5196  15.6502

     occupation numbers 
     1.0000   1.0000   1.0000   1.0000   1.0000   1.0000   1.0000   1.0000
     1.0000   1.0000   1.0000   1.0000   1.0000   1.0000   0.0000   0.0000
     0.0000   0.0000

          k =-0.4923-0.0544 0.7071 (  1645 PWs)   bands (ev):

   -17.1609 -17.1423 -17.0597 -17.0333 -16.9900 -16.9801 -16.9584 -16.9417
   -16.8524 -16.8363  -1.3064  -0.7229   4.0327   4.3649   9.9438   9.9566
    13.1114  15.4156

     occupation numbers 
     1.0000   1.0000   1.0000   1.0000   1.0000   1.0000   1.0000   1.0000
     1.0000   1.0000   1.0000   1.0000   1.0000   1.0000   0.0000   0.0000
     0.0000   0.0000

          k =-0.4351 0.0000 0.6527 (  1648 PWs)   bands (ev):

   -17.1657 -17.1440 -17.0479 -17.0267 -16.9974 -16.9767 -16.9663 -16.9475
   -16.8510 -16.8322  -1.3164  -0.6852   3.7593   4.3500  10.1377  11.3085
    12.8167  13.8793

     occupation numbers 
     1.0000   1.0000   1.0000   1.0000   1.0000   1.0000   1.0000   1.0000
     1.0000   1.0000   1.0000   1.0000   1.0000   1.0000   0.0000   0.0000
     0.0000   0.0000

          k =-0.3835-0.0544 0.7071 (  1647 PWs)   bands (ev):

   -17.1679 -17.1417 -17.0483 -17.0193 -16.9904 -16.9866 -16.9653 -16.9531
   -16.8527 -16.8299  -1.1328  -0.8471   3.7557   4.2145  11.0214  11.4997
    11.8044  13.6453

     occupation numbers 
     1.0000   1.0000   1.0000   1.0000   1.0000   1.0000   1.0000   1.0000
     1.0000   1.0000   1.0000   1.0000   1.0000   1.0000   0.0000   0.0000
     0.0000   0.0000

          k =-0.3264 0.0000 0.6527 (  1647 PWs)   bands (ev):

   -17.1689 -17.1428 -17.0437 -17.0221 -17.0052 -16.9724 -16.9688 -16.9502
   -16.8521 -16.8294  -1.4215  -0.5621   3.7765   4.2061  10.9682  11.7588
    12.1449  13.0754

     occupation numbers 
     1.0000   1.0000   1.0000   1.0000   1.0000   1.0000   1.0000   1.0000
     1.0000   1.0000   1.0000   1.0000   1.0000   1.0000   0.0000   0.0000
     0.0000   0.0000

          k =-0.2747-0.0544 0.7071 (  1647 PWs)   bands (ev):

   -17.1705 -17.1376 -17.0513 -17.0243 -16.9954 -16.9788 -16.9619 -16.9518
   -16.8560 -16.8277  -1.0009  -0.9948   3.7903   4.2779   9.7742  11.8339
    13.2291  13.3160

     occupation numbers 
     1.0000   1.0000   1.0000   1.0000   1.0000   1.0000   1.0000   1.0000
     1.0000   1.0000   1.0000   1.0000   1.0000   1.0000   0.0000   0.0000
     0.0000   0.0000

          k =-0.2176 0.0000 0.6527 (  1645 PWs)   bands (ev):

   -17.1679 -17.1377 -17.0566 -17.0358 -17.0018 -16.9680 -16.9614 -16.9391
   -16.8564 -16.8307  -1.5335  -0.4985   4.0437   4.3439   9.6047  10.4231
    13.5969  14.8086

     occupation numbers 
     1.0000   1.0000   1.0000   1.0000   1.0000   1.0000   1.0000   1.0000
     1.0000   1.0000   1.0000   1.0000   1.0000   1.0000   0.0000   0.0000
     0.0000   0.0000

          k =-0.1659-0.0544 0.7071 (  1652 PWs)   bands (ev):

   -17.1687 -17.1311 -17.0627 -17.0449 -16.9936 -16.9742 -16.9462 -16.9429
   -16.8613 -16.8297  -1.1467  -0.9222   4.1430   4.4747   8.6425  10.2904
    14.9096  15.1400

     occupation numbers 
     1.0000   1.0000   1.0000   1.0000   1.0000   1.0000   1.0000   1.0000
     1.0000   1.0000   1.0000   1.0000   1.0000   1.0000   0.0000   0.0000
     0.0000   0.0000

          k =-0.1088 0.0000 0.6527 (  1649 PWs)   bands (ev):

   -17.1644 -17.1304 -17.0730 -17.0505 -16.9996 -16.9665 -16.9502 -16.9242
   -16.8623 -16.8345  -1.6213  -0.4813   4.3681   4.7354   8.5313   9.2025
    15.3818  16.1412

     occupation numbers 
     1.0000   1.0000   1.0000   1.0000   1.0000   1.0000   1.0000   1.0000
     1.0000   1.0000   1.0000   1.0000   1.0000   1.0000   0.0000   0.0000
     0.0000   0.0000

          k = 0.0000 0.0000 0.6527 (  1640 PWs)   bands (ev):

   -17.1624 -17.1263 -17.0804 -17.0569 -16.9991 -16.9661 -16.9449 -16.9175
   -16.8654 -16.8366  -1.6546  -0.4805   4.5297   4.9860   8.0939   8.7026
    16.4368  16.5411

     occupation numbers 
     1.0000   1.0000   1.0000   1.0000   1.0000   1.0000   1.0000   1.0000
     1.0000   1.0000   1.0000   1.0000   1.0000   1.0000   0.0005   0.0000
     0.0000   0.0000

          k =-0.0571-0.0544 0.7071 (  1648 PWs)   bands (ev):

   -17.1648 -17.1270 -17.0692 -17.0622 -16.9938 -16.9718 -16.9376 -16.9306
   -16.8644 -16.8339  -1.2765  -0.8626   4.5493   4.6686   8.1401   9.1187
    16.1331  16.4240

     occupation numbers 
     1.0000   1.0000   1.0000   1.0000   1.0000   1.0000   1.0000   1.0000
     1.0000   1.0000   1.0000   1.0000   1.0000   1.0000   0.0002   0.0000
     0.0000   0.0000

          k =-0.6201 0.6527-0.0000 (  1638 PWs)   bands (ev):

   -17.1627 -17.1307 -17.0686 -17.0623 -16.9953 -16.9702 -16.9434 -16.9243
   -16.8618 -16.8361  -1.3719  -0.7803   4.2997   4.9999   8.4841   8.6726
    16.3544  16.3649

     occupation numbers 
     1.0000   1.0000   1.0000   1.0000   1.0000   1.0000   1.0000   1.0000
     1.0000   1.0000   1.0000   1.0000   1.0000   1.0000   0.0000   0.0000
     0.0000   0.0000

          k =-0.5113 0.6527-0.0000 (  1648 PWs)   bands (ev):

   -17.1646 -17.1384 -17.0615 -17.0460 -16.9980 -16.9693 -16.9576 -16.9302
   -16.8558 -16.8342  -1.4406  -0.6595   3.9386   4.8161   9.2565   9.4708
    15.0818  15.1966

     occupation numbers 
     1.0000   1.0000   1.0000   1.0000   1.0000   1.0000   1.0000   1.0000
     1.0000   1.0000   1.0000   1.0000   1.0000   1.0000   0.0000   0.0000
     0.0000   0.0000

          k =-0.4025 0.6527-0.0000 (  1643 PWs)   bands (ev):

   -17.1674 -17.1442 -17.0464 -17.0297 -17.0044 -16.9706 -16.9689 -16.9419
   -16.8509 -16.8313  -1.5021  -0.5210   3.7326   4.4298  10.5562  10.8232
    13.2759  13.4795

     occupation numbers 
     1.0000   1.0000   1.0000   1.0000   1.0000   1.0000   1.0000   1.0000
     1.0000   1.0000   1.0000   1.0000   1.0000   1.0000   0.0000   0.0000
     0.0000   0.0000

          k =-0.2937 0.6527-0.0000 (  1639 PWs)   bands (ev):

   -17.1673 -17.1462 -17.0382 -17.0245 -17.0104 -16.9732 -16.9674 -16.9478
   -16.8492 -16.8312  -1.5672  -0.4155   3.7908   4.2019  11.3744  11.6408
    12.3447  12.5632

     occupation numbers 
     1.0000   1.0000   1.0000   1.0000   1.0000   1.0000   1.0000   1.0000
     1.0000   1.0000   1.0000   1.0000   1.0000   1.0000   0.0000   0.0000
     0.0000   0.0000

          k =-0.1849 0.6527-0.0000 (  1648 PWs)   bands (ev):

   -17.1626 -17.1449 -17.0519 -17.0348 -17.0036 -16.9671 -16.9648 -16.9399
   -16.8505 -16.8355  -1.6227  -0.3883   4.1027   4.2589   9.8797  10.1945
    14.1301  14.2068

     occupation numbers 
     1.0000   1.0000   1.0000   1.0000   1.0000   1.0000   1.0000   1.0000
     1.0000   1.0000   1.0000   1.0000   1.0000   1.0000   0.0000   0.0000
     0.0000   0.0000

          k =-0.0761 0.6527-0.0000 (  1656 PWs)   bands (ev):

   -17.1540 -17.1426 -17.0688 -17.0487 -16.9979 -16.9688 -16.9519 -16.9270
   -16.8526 -16.8433  -1.6392  -0.4375   4.5325   4.5350   8.7030   9.0451
    15.6784  15.9133

     occupation numbers 
     1.0000   1.0000   1.0000   1.0000   1.0000   1.0000   1.0000   1.0000
     1.0000   1.0000   1.0000   1.0000   1.0000   1.0000   0.0000   0.0000
     0.0000   0.0000

     the Fermi energy is     7.5661 ev

!    total energy              =    -426.37785173 Ry
     estimated scf accuracy    <          4.6E-12 Ry
     smearing contrib. (-TS)   =       0.00015566 Ry
     internal energy E=F+TS    =    -426.37800739 Ry

     The total energy is F=E-TS. E is the sum of the following terms:
     one-electron contribution =    -284.71000161 Ry
     hartree contribution      =     167.36054613 Ry
     xc contribution           =    -115.21852376 Ry
     ewald contribution        =    -193.81002815 Ry

     convergence has been achieved in  10 iterations

     Forces acting on atoms (cartesian axes, Ry/au):

     atom    1 type  1   force =     0.00000000    0.00000000   -0.01345917
     atom    2 type  1   force =     0.00000000    0.00000000    0.01345917
     The non-local contrib.  to forces
     atom    1 type  1   force =     0.00000000    0.00000000   -0.02971114
     atom    2 type  1   force =     0.00000000    0.00000000    0.02971114
     The ionic contribution  to forces
     atom    1 type  1   force =     0.00000000    0.00000000   -1.66184537
     atom    2 type  1   force =    -0.00000000    0.00000000    1.66184537
     The local contribution  to forces
     atom    1 type  1   force =     0.00000000   -0.00000000    1.67468919
     atom    2 type  1   force =     0.00000000    0.00000000   -1.67468919
     The core correction contribution to forces
     atom    1 type  1   force =    -0.00000000   -0.00000000    0.00340852
     atom    2 type  1   force =     0.00000000   -0.00000000   -0.00340852
     The Hubbard contrib.    to forces
     atom    1 type  1   force =     0.00000000    0.00000000    0.00000000
     atom    2 type  1   force =     0.00000000    0.00000000    0.00000000
     The SCF correction term to forces
     atom    1 type  1   force =     0.00000000    0.00000000   -0.00000037
     atom    2 type  1   force =     0.00000000    0.00000000    0.00000037

     Total force =     0.019034     Total SCF correction =     0.000001


     Computing stress (Cartesian axis) and pressure

          total   stress  (Ry/bohr**3)                   (kbar)     P=      -27.51
  -0.00017648   0.00023517  -0.00000000          -25.96       34.59       -0.00
   0.00023517  -0.00019443   0.00000000           34.59      -28.60        0.00
  -0.00000000   0.00000000  -0.00019018           -0.00        0.00      -27.98

     kinetic stress (kbar)   9461.31     14.97     -0.00
                               14.97   9460.83     -0.00
                               -0.00      0.00   9459.14

     local   stress (kbar)    729.92  -2801.78     -0.00
                            -2801.78   1096.74     -0.00
                               -0.00     -0.00    943.87

     nonloc. stress (kbar)   2823.84     17.32      0.00
                               17.32   2821.70     -0.00
                                0.00     -0.00   2823.05

     hartree stress (kbar)  25497.58   1151.54      0.00
                             1151.54  25346.97      0.00
                                0.00      0.00  25403.63

     exc-cor stress (kbar)  18587.18      0.61     -0.00
                                0.61  18587.09     -0.00
                               -0.00     -0.00  18587.14

     corecor stress (kbar) -27804.77     -0.98      0.00
                               -0.98 -27804.66     -0.00
                                0.00     -0.00 -27804.73

     ewald   stress (kbar) -29321.02   1652.90     -0.00
                             1652.90 -29537.27     -0.00
                               -0.00     -0.00 -29440.07

     hubbard stress (kbar)      0.00      0.00      0.00
                                0.00      0.00      0.00
                                0.00      0.00      0.00

     DFT-D   stress (kbar)      0.00      0.00      0.00
                                0.00      0.00      0.00
                                0.00      0.00      0.00

     XDM     stress (kbar)      0.00      0.00      0.00
                                0.00      0.00      0.00
                                0.00      0.00      0.00

     dft-nl  stress (kbar)      0.00      0.00      0.00
                                0.00      0.00      0.00
                                0.00      0.00      0.00

     TS-vdW  stress (kbar)      0.00      0.00      0.00
                                0.00      0.00      0.00
                                0.00      0.00      0.00

     MDB     stress (kbar)      0.00      0.00      0.00
                                0.00      0.00      0.00
                                0.00      0.00      0.00

     3D-RISM stress (kbar)      0.00      0.00      0.00
                                0.00      0.00      0.00
                                0.00      0.00      0.00


     Writing all to output data dir ./out/aiida.save/ :
     XML data file, charge density, pseudopotentials, collected wavefunctions

     init_run     :     61.78s CPU     31.12s WALL (       1 calls)
     electrons    :   2010.12s CPU    987.09s WALL (       1 calls)
     forces       :      8.33s CPU      3.38s WALL (       1 calls)
     stress       :     37.87s CPU     16.69s WALL (       1 calls)

     Called by init_run:
     wfcinit      :     61.22s CPU     30.54s WALL (       1 calls)
     wfcinit:atom :      0.91s CPU      0.47s WALL (     595 calls)
     wfcinit:wfcr :     55.01s CPU     27.51s WALL (     595 calls)
     potinit      :      0.07s CPU      0.07s WALL (       1 calls)
     hinit0       :      0.23s CPU      0.24s WALL (       1 calls)

     Called by electrons:
     c_bands      :   1699.03s CPU    826.68s WALL (      11 calls)
     sum_band     :    308.17s CPU    157.57s WALL (      11 calls)
     v_of_rho     :      0.73s CPU      0.71s WALL (      11 calls)
     v_h          :      0.04s CPU      0.04s WALL (      11 calls)
     v_xc         :      0.93s CPU      0.83s WALL (      13 calls)
     newd         :      2.17s CPU      2.17s WALL (      11 calls)
     mix_rho      :      0.08s CPU      0.08s WALL (      11 calls)

     Called by c_bands:
     init_us_2    :     39.84s CPU     16.82s WALL (   14875 calls)
     cegterg      :   1628.76s CPU    793.02s WALL (    6545 calls)

     Called by sum_band:
     sum_band:wei :      0.51s CPU      0.27s WALL (      11 calls)
     sum_band:loo :    302.38s CPU    154.17s WALL (      11 calls)
     sum_band:buf :      1.96s CPU      0.65s WALL (    6545 calls)
     sum_band:ini :     17.18s CPU      7.50s WALL (    6545 calls)
     sum_band:cal :     12.76s CPU      6.03s WALL (    6545 calls)
     sum_band:bec :      0.55s CPU      0.18s WALL (    6545 calls)
     addusdens    :      5.16s CPU      3.03s WALL (      11 calls)
                                        0.00s GPU  (      11 calls)
     addusd:skk   :      0.01s CPU      0.01s WALL (      11 calls)
                                        0.00s GPU  (      11 calls)

     Called by *egterg:
     cdiaghg      :     45.58s CPU     16.62s WALL (   20276 calls)
     cegterg:over :     41.53s CPU     11.33s WALL (   14326 calls)
     cegterg:upda :     22.60s CPU      7.78s WALL (   14326 calls)
     cegterg:last :     41.37s CPU     11.30s WALL (   12421 calls)
     h_psi        :   1467.29s CPU    753.92s WALL (   21466 calls)
     s_psi        :     26.35s CPU      7.89s WALL (   21466 calls)
     g_psi        :      7.55s CPU      2.34s WALL (   14326 calls)

     Called by h_psi:
     h_psi:calbec :     38.36s CPU     21.36s WALL (   21466 calls)
     vloc_psi     :   1399.08s CPU    723.02s WALL (   21466 calls)
                                        0.00s GPU  (   21466 calls)
     add_vuspsi   :     25.49s CPU      7.86s WALL (   21466 calls)

     General routines
     calbec       :     65.47s CPU     33.22s WALL (   38126 calls)
     fft          :      0.54s CPU      0.47s WALL (     167 calls)
     ffts         :      0.04s CPU      0.03s WALL (      22 calls)
     fftw         :   1500.52s CPU    782.00s WALL (  721204 calls)
     interpolate  :      0.04s CPU      0.04s WALL (      11 calls)

     Parallel routines

     PWSCF        :  35m18.60s CPU  17m18.83s WALL


   This run was terminated on:   0:25:53  25Dec2025            

=------------------------------------------------------------------------------=
   JOB DONE.
=------------------------------------------------------------------------------=
