
     Program PWSCF v.7.4.1 starts on 25Dec2025 at  0:51:26 

     This program is part of the open-source Quantum ESPRESSO suite
     for quantum simulation of materials; please cite
         "P. Giannozzi et al., J. Phys.:Condens. Matter 21 395502 (2009);
         "P. Giannozzi et al., J. Phys.:Condens. Matter 29 465901 (2017);
         "P. Giannozzi et al., J. Chem. Phys. 152 154105 (2020);
          URL http://www.quantum-espresso.org", 
     in publications or presentations arising from this work. More details at
     http://www.quantum-espresso.org/quote

     Parallel version (MPI), running on     1 processors

     MPI processes distributed on     1 nodes
     690 MiB available memory on the printing compute node when the environment starts

     Waiting for input...
     Reading input from standard input
Warning: card &CELL ignored

     Current dimensions of program PWSCF are:
     Max number of different atomic species (ntypx) = 10
     Max number of k-points (npk) =  40000
     Max angular momentum in pseudopotentials (lmaxx) =  4
     Message from routine setup:
     using ibrav=0 with symmetry is DISCOURAGED, use correct ibrav instead

     Subspace diagonalization in iterative solution of the eigenvalue problem:
     a serial algorithm will be used


     G-vector sticks info
     --------------------
     sticks:   dense  smooth     PW     G-vecs:    dense   smooth      PW
     Sum        1437     727    215                36115    12787    2157

     Using Slab Decomposition



     bravais-lattice index     =            0
     lattice parameter (alat)  =       7.7006  a.u.
     unit-cell volume          =     313.2009 (a.u.)^3
     number of atoms/cell      =            2
     number of atomic types    =            1
     number of electrons       =        28.00
     number of Kohn-Sham states=           18
     kinetic-energy cutoff     =      45.0000  Ry
     charge density cutoff     =     360.0000  Ry
     scf convergence threshold =      4.0E-10
     mixing beta               =       0.4000
     number of iterations used =            8  plain     mixing
     Exchange-correlation= SLA  PW   PSX  PSC
                           (   1   4  10   8   0   0   0)

     celldm(1)=   7.700556  celldm(2)=   0.000000  celldm(3)=   0.000000
     celldm(4)=   0.000000  celldm(5)=   0.000000  celldm(6)=   0.000000

     crystal axes: (cart. coord. in units of alat)
               a(1) = (   0.000000   0.707107   0.707107 )  
               a(2) = (   0.685894   0.000000   0.707107 )  
               a(3) = (   0.685894   0.707107   0.000000 )  

     reciprocal axes: (cart. coord. in units 2 pi/alat)
               b(1) = ( -0.728976  0.707107  0.707107 )  
               b(2) = (  0.728976 -0.707107  0.707107 )  
               b(3) = (  0.728976  0.707107 -0.707107 )  


     PseudoPot. # 1 for Ge read from file:
     ./pseudo/ge_pbesol_v1.4.uspp.F.UPF
     MD5 check sum: 7bed0412183f5e553a4d27ec7023354d
     Pseudo is Ultrasoft + core correction, Zval = 14.0
     Generated by new atomic code, or converted to UPF format
     Using radial grid of  873 points,  6 beta functions with: 
                l(1) =   0
                l(2) =   0
                l(3) =   1
                l(4) =   1
                l(5) =   2
                l(6) =   2
     Q(r) pseudized with  8 coefficients,  rinner =    1.400   1.400   1.400
                                                       1.400   1.400

     atomic species   valence    mass     pseudopotential
     Ge               14.00    72.64000     Ge( 1.00)

     16 Sym. Ops., with inversion, found ( 8 have fractional translation)


                                    s                        frac. trans.

      isym =  1     identity                                     

 cryst.   s( 1) = (     1          0          0      )
                  (     0          1          0      )
                  (     0          0          1      )

 cart.    s( 1) = (  1.0000000  0.0000000  0.0000000 )
                  (  0.0000000  1.0000000  0.0000000 )
                  (  0.0000000  0.0000000  1.0000000 )


      isym =  2     180 deg rotation - cart. axis [0,0,1]        

 cryst.   s( 2) = (     0          1         -1      )
                  (     1          0         -1      )
                  (     0          0         -1      )

 cart.    s( 2) = ( -1.0000000  0.0000000  0.0000000 )
                  (  0.0000000 -1.0000000  0.0000000 )
                  (  0.0000000  0.0000000  1.0000000 )


      isym =  3     180 deg rotation - cart. axis [0,1,0]        

 cryst.   s( 3) = (     0         -1          1      )
                  (     0         -1          0      )
                  (     1         -1          0      )

 cart.    s( 3) = ( -1.0000000  0.0000000  0.0000000 )
                  (  0.0000000  1.0000000  0.0000000 )
                  (  0.0000000  0.0000000 -1.0000000 )


      isym =  4     180 deg rotation - cart. axis [1,0,0]        

 cryst.   s( 4) = (    -1          0          0      )
                  (    -1          0          1      )
                  (    -1          1          0      )

 cart.    s( 4) = (  1.0000000  0.0000000  0.0000000 )
                  (  0.0000000 -1.0000000  0.0000000 )
                  (  0.0000000  0.0000000 -1.0000000 )


      isym =  5     180 deg rotation - cart. axis [0,1,1]        

 cryst.   s( 5) = (     1          0          0      )    f =( -0.2500000 )
                  (     1         -1          0      )       ( -0.2500000 )
                  (     1          0         -1      )       ( -0.2500000 )

 cart.    s( 5) = ( -1.0000000  0.0000000  0.0000000 )    f =( -0.3429468 )
                  (  0.0000000  0.0000000  1.0000000 )       ( -0.3535534 )
                  (  0.0000000  1.0000000  0.0000000 )       ( -0.3535534 )


      isym =  6     180 deg rotation - cart. axis [0,1,-1]       

 cryst.   s( 6) = (    -1          0          0      )    f =( -0.2500000 )
                  (     0          0         -1      )       ( -0.2500000 )
                  (     0         -1          0      )       ( -0.2500000 )

 cart.    s( 6) = ( -1.0000000  0.0000000  0.0000000 )    f =( -0.3429468 )
                  (  0.0000000  0.0000000 -1.0000000 )       ( -0.3535534 )
                  (  0.0000000 -1.0000000  0.0000000 )       ( -0.3535534 )


      isym =  7      90 deg rotation - cart. axis [-1,0,0]       

 cryst.   s( 7) = (     0         -1          1      )    f =( -0.2500000 )
                  (     0          0          1      )       ( -0.2500000 )
                  (    -1          0          1      )       ( -0.2500000 )

 cart.    s( 7) = (  1.0000000  0.0000000  0.0000000 )    f =( -0.3429468 )
                  (  0.0000000  0.0000000  1.0000000 )       ( -0.3535534 )
                  (  0.0000000 -1.0000000  0.0000000 )       ( -0.3535534 )


      isym =  8      90 deg rotation - cart. axis [1,0,0]        

 cryst.   s( 8) = (     0          1         -1      )    f =( -0.2500000 )
                  (    -1          1          0      )       ( -0.2500000 )
                  (     0          1          0      )       ( -0.2500000 )

 cart.    s( 8) = (  1.0000000  0.0000000  0.0000000 )    f =( -0.3429468 )
                  (  0.0000000  0.0000000 -1.0000000 )       ( -0.3535534 )
                  (  0.0000000  1.0000000  0.0000000 )       ( -0.3535534 )


      isym =  9     inversion                                    

 cryst.   s( 9) = (    -1          0          0      )    f =( -0.2500000 )
                  (     0         -1          0      )       ( -0.2500000 )
                  (     0          0         -1      )       ( -0.2500000 )

 cart.    s( 9) = ( -1.0000000  0.0000000  0.0000000 )    f =( -0.3429468 )
                  (  0.0000000 -1.0000000  0.0000000 )       ( -0.3535534 )
                  (  0.0000000  0.0000000 -1.0000000 )       ( -0.3535534 )


      isym = 10     inv. 180 deg rotation - cart. axis [0,0,1]   

 cryst.   s(10) = (     0         -1          1      )    f =( -0.2500000 )
                  (    -1          0          1      )       ( -0.2500000 )
                  (     0          0          1      )       ( -0.2500000 )

 cart.    s(10) = (  1.0000000  0.0000000  0.0000000 )    f =( -0.3429468 )
                  (  0.0000000  1.0000000  0.0000000 )       ( -0.3535534 )
                  (  0.0000000  0.0000000 -1.0000000 )       ( -0.3535534 )


      isym = 11     inv. 180 deg rotation - cart. axis [0,1,0]   

 cryst.   s(11) = (     0          1         -1      )    f =( -0.2500000 )
                  (     0          1          0      )       ( -0.2500000 )
                  (    -1          1          0      )       ( -0.2500000 )

 cart.    s(11) = (  1.0000000  0.0000000  0.0000000 )    f =( -0.3429468 )
                  (  0.0000000 -1.0000000  0.0000000 )       ( -0.3535534 )
                  (  0.0000000  0.0000000  1.0000000 )       ( -0.3535534 )


      isym = 12     inv. 180 deg rotation - cart. axis [1,0,0]   

 cryst.   s(12) = (     1          0          0      )    f =( -0.2500000 )
                  (     1          0         -1      )       ( -0.2500000 )
                  (     1         -1          0      )       ( -0.2500000 )

 cart.    s(12) = ( -1.0000000  0.0000000  0.0000000 )    f =( -0.3429468 )
                  (  0.0000000  1.0000000  0.0000000 )       ( -0.3535534 )
                  (  0.0000000  0.0000000  1.0000000 )       ( -0.3535534 )


      isym = 13     inv. 180 deg rotation - cart. axis [0,1,1]   

 cryst.   s(13) = (    -1          0          0      )
                  (    -1          1          0      )
                  (    -1          0          1      )

 cart.    s(13) = (  1.0000000  0.0000000  0.0000000 )
                  (  0.0000000  0.0000000 -1.0000000 )
                  (  0.0000000 -1.0000000  0.0000000 )


      isym = 14     inv. 180 deg rotation - cart. axis [0,1,-1]  

 cryst.   s(14) = (     1          0          0      )
                  (     0          0          1      )
                  (     0          1          0      )

 cart.    s(14) = (  1.0000000  0.0000000  0.0000000 )
                  (  0.0000000  0.0000000  1.0000000 )
                  (  0.0000000  1.0000000  0.0000000 )


      isym = 15     inv.  90 deg rotation - cart. axis [-1,0,0]  

 cryst.   s(15) = (     0          1         -1      )
                  (     0          0         -1      )
                  (     1          0         -1      )

 cart.    s(15) = ( -1.0000000  0.0000000  0.0000000 )
                  (  0.0000000  0.0000000 -1.0000000 )
                  (  0.0000000  1.0000000  0.0000000 )


      isym = 16     inv.  90 deg rotation - cart. axis [1,0,0]   

 cryst.   s(16) = (     0         -1          1      )
                  (     1         -1          0      )
                  (     0         -1          0      )

 cart.    s(16) = ( -1.0000000  0.0000000  0.0000000 )
                  (  0.0000000  0.0000000  1.0000000 )
                  (  0.0000000 -1.0000000  0.0000000 )


   Cartesian axes

     site n.     atom                  positions (alat units)
         1        Ge     tau(   1) = (   0.6858936   0.7071068   0.7071068  )
         2        Ge     tau(   2) = (   1.0288404   1.0606602   1.0606602  )

   Crystallographic axes

     site n.     atom                  positions (cryst. coord.)
         1        Ge     tau(   1) = (  0.5000000  0.5000000  0.5000000  )
         2        Ge     tau(   2) = (  0.7500000  0.7500000  0.7500000  )

     number of k points=   196  Marzari-Vanderbilt smearing, width (Ry)=  0.0200
                       cart. coord. in units 2pi/alat
        k(    1) = (   0.0000000   0.0000000   0.0000000), wk =   0.0009103
        k(    2) = (   0.0560751   0.0543928  -0.0543928), wk =   0.0072827
        k(    3) = (   0.1121502   0.1087857  -0.1087857), wk =   0.0072827
        k(    4) = (   0.1682252   0.1631785  -0.1631785), wk =   0.0072827
        k(    5) = (   0.2243003   0.2175713  -0.2175713), wk =   0.0072827
        k(    6) = (   0.2803754   0.2719641  -0.2719641), wk =   0.0072827
        k(    7) = (   0.3364505   0.3263570  -0.3263570), wk =   0.0072827
        k(    8) = (   0.1121502   0.0000000   0.0000000), wk =   0.0018207
        k(    9) = (   0.1682252   0.0543928  -0.0543928), wk =   0.0072827
        k(   10) = (   0.2243003   0.1087857  -0.1087857), wk =   0.0072827
        k(   11) = (   0.2803754   0.1631785  -0.1631785), wk =   0.0072827
        k(   12) = (   0.3364505   0.2175713  -0.2175713), wk =   0.0072827
        k(   13) = (   0.3925256   0.2719641  -0.2719641), wk =   0.0072827
        k(   14) = (  -0.2803754  -0.3807498   0.3807498), wk =   0.0072827
        k(   15) = (  -0.2243003  -0.3263570   0.3263570), wk =   0.0072827
        k(   16) = (  -0.1682252  -0.2719641   0.2719641), wk =   0.0072827
        k(   17) = (  -0.1121502  -0.2175713   0.2175713), wk =   0.0072827
        k(   18) = (  -0.0560751  -0.1631785   0.1631785), wk =   0.0072827
        k(   19) = (   0.0000000  -0.1087857   0.1087857), wk =   0.0036413
        k(   20) = (   0.2243003   0.0000000   0.0000000), wk =   0.0018207
        k(   21) = (   0.2803754   0.0543928  -0.0543928), wk =   0.0072827
        k(   22) = (   0.3364505   0.1087857  -0.1087857), wk =   0.0072827
        k(   23) = (   0.3925256   0.1631785  -0.1631785), wk =   0.0072827
        k(   24) = (   0.4486007   0.2175713  -0.2175713), wk =   0.0072827
        k(   25) = (  -0.2243003  -0.4351426   0.4351426), wk =   0.0072827
        k(   26) = (  -0.1682252  -0.3807498   0.3807498), wk =   0.0072827
        k(   27) = (  -0.1121502  -0.3263570   0.3263570), wk =   0.0072827
        k(   28) = (  -0.0560751  -0.2719641   0.2719641), wk =   0.0072827
        k(   29) = (   0.0000000  -0.2175713   0.2175713), wk =   0.0036413
        k(   30) = (   0.3364505   0.0000000   0.0000000), wk =   0.0018207
        k(   31) = (   0.3925256   0.0543928  -0.0543928), wk =   0.0072827
        k(   32) = (   0.4486007   0.1087857  -0.1087857), wk =   0.0072827
        k(   33) = (   0.5046757   0.1631785  -0.1631785), wk =   0.0072827
        k(   34) = (  -0.1682252  -0.4895355   0.4895355), wk =   0.0072827
        k(   35) = (  -0.1121502  -0.4351426   0.4351426), wk =   0.0072827
        k(   36) = (  -0.0560751  -0.3807498   0.3807498), wk =   0.0072827
        k(   37) = (   0.0000000  -0.3263570   0.3263570), wk =   0.0036413
        k(   38) = (   0.4486007   0.0000000   0.0000000), wk =   0.0018207
        k(   39) = (   0.5046757   0.0543928  -0.0543928), wk =   0.0072827
        k(   40) = (   0.5607508   0.1087857  -0.1087857), wk =   0.0072827
        k(   41) = (  -0.1121502  -0.5439283   0.5439283), wk =   0.0072827
        k(   42) = (  -0.0560751  -0.4895355   0.4895355), wk =   0.0072827
        k(   43) = (   0.0000000  -0.4351426   0.4351426), wk =   0.0036413
        k(   44) = (   0.5607508   0.0000000   0.0000000), wk =   0.0018207
        k(   45) = (   0.6168259   0.0543928  -0.0543928), wk =   0.0072827
        k(   46) = (  -0.0560751  -0.5983211   0.5983211), wk =   0.0072827
        k(   47) = (   0.0000000  -0.5439283   0.5439283), wk =   0.0036413
        k(   48) = (   0.6729010   0.0000000   0.0000000), wk =   0.0018207
        k(   49) = (   0.0000000  -0.6527140   0.6527140), wk =   0.0036413
        k(   50) = (   0.0000000   0.1087857   0.0000000), wk =   0.0036413
        k(   51) = (   0.0560751   0.1631785  -0.0543928), wk =   0.0145653
        k(   52) = (   0.1121502   0.2175713  -0.1087857), wk =   0.0145653
        k(   53) = (   0.1682252   0.2719641  -0.1631785), wk =   0.0145653
        k(   54) = (   0.2243003   0.3263570  -0.2175713), wk =   0.0145653
        k(   55) = (   0.2803754   0.3807498  -0.2719641), wk =   0.0145653
        k(   56) = (  -0.3925256  -0.2719641   0.3807498), wk =   0.0145653
        k(   57) = (  -0.3364505  -0.2175713   0.3263570), wk =   0.0145653
        k(   58) = (  -0.2803754  -0.1631785   0.2719641), wk =   0.0145653
        k(   59) = (  -0.2243003  -0.1087857   0.2175713), wk =   0.0145653
        k(   60) = (  -0.1682252  -0.0543928   0.1631785), wk =   0.0145653
        k(   61) = (  -0.1121502   0.0000000   0.1087857), wk =   0.0072827
        k(   62) = (   0.2243003   0.1087857   0.0000000), wk =   0.0072827
        k(   63) = (   0.2803754   0.1631785  -0.0543928), wk =   0.0145653
        k(   64) = (   0.3364505   0.2175713  -0.1087857), wk =   0.0145653
        k(   65) = (   0.3925256   0.2719641  -0.1631785), wk =   0.0145653
        k(   66) = (  -0.2803754  -0.3807498   0.4895355), wk =   0.0145653
        k(   67) = (  -0.2243003  -0.3263570   0.4351426), wk =   0.0145653
        k(   68) = (  -0.1682252  -0.2719641   0.3807498), wk =   0.0145653
        k(   69) = (  -0.1121502  -0.2175713   0.3263570), wk =   0.0145653
        k(   70) = (  -0.0560751  -0.1631785   0.2719641), wk =   0.0145653
        k(   71) = (   0.0000000  -0.1087857   0.2175713), wk =   0.0072827
        k(   72) = (   0.3364505   0.1087857   0.0000000), wk =   0.0072827
        k(   73) = (   0.3925256   0.1631785  -0.0543928), wk =   0.0145653
        k(   74) = (   0.4486007   0.2175713  -0.1087857), wk =   0.0145653
        k(   75) = (  -0.2243003  -0.4351426   0.5439283), wk =   0.0145653
        k(   76) = (  -0.1682252  -0.3807498   0.4895355), wk =   0.0145653
        k(   77) = (  -0.1121502  -0.3263570   0.4351426), wk =   0.0145653
        k(   78) = (  -0.0560751  -0.2719641   0.3807498), wk =   0.0145653
        k(   79) = (  -0.0000000  -0.2175713   0.3263570), wk =   0.0072827
        k(   80) = (   0.4486007   0.1087857   0.0000000), wk =   0.0072827
        k(   81) = (   0.5046757   0.1631785  -0.0543928), wk =   0.0145653
        k(   82) = (  -0.1682252  -0.4895355   0.5983211), wk =   0.0145653
        k(   83) = (  -0.1121502  -0.4351426   0.5439283), wk =   0.0145653
        k(   84) = (  -0.0560751  -0.3807498   0.4895355), wk =   0.0145653
        k(   85) = (   0.0000000  -0.3263570   0.4351426), wk =   0.0072827
        k(   86) = (   0.5607508   0.1087857  -0.0000000), wk =   0.0072827
        k(   87) = (  -0.1121502  -0.5439283   0.6527140), wk =   0.0145653
        k(   88) = (  -0.0560751  -0.4895355   0.5983211), wk =   0.0145653
        k(   89) = (   0.0000000  -0.4351426   0.5439283), wk =   0.0072827
        k(   90) = (  -0.0560751  -0.5983211   0.7071068), wk =   0.0072827
        k(   91) = (   0.0000000  -0.5439283   0.6527140), wk =   0.0072827
        k(   92) = (   0.0000000   0.2175713   0.0000000), wk =   0.0036413
        k(   93) = (   0.0560751   0.2719641  -0.0543928), wk =   0.0145653
        k(   94) = (   0.1121502   0.3263570  -0.1087857), wk =   0.0145653
        k(   95) = (   0.1682252   0.3807498  -0.1631785), wk =   0.0145653
        k(   96) = (   0.2243003   0.4351426  -0.2175713), wk =   0.0145653
        k(   97) = (  -0.4486007  -0.2175713   0.4351426), wk =   0.0145653
        k(   98) = (  -0.3925256  -0.1631785   0.3807498), wk =   0.0145653
        k(   99) = (  -0.3364505  -0.1087857   0.3263570), wk =   0.0145653
        k(  100) = (  -0.2803754  -0.0543928   0.2719641), wk =   0.0145653
        k(  101) = (  -0.2243003   0.0000000   0.2175713), wk =   0.0072827
        k(  102) = (   0.1121502   0.2175713   0.0000000), wk =   0.0072827
        k(  103) = (   0.1682252   0.2719641  -0.0543928), wk =   0.0145653
        k(  104) = (   0.2243003   0.3263570  -0.1087857), wk =   0.0145653
        k(  105) = (   0.2803754   0.3807498  -0.1631785), wk =   0.0145653
        k(  106) = (  -0.3925256  -0.2719641   0.4895355), wk =   0.0145653
        k(  107) = (   0.3364505   0.2175713   0.0000000), wk =   0.0072827
        k(  108) = (   0.3925256   0.2719641  -0.0543928), wk =   0.0145653
        k(  109) = (  -0.2803754  -0.3807498   0.5983211), wk =   0.0145653
        k(  110) = (  -0.2243003  -0.3263570   0.5439283), wk =   0.0145653
        k(  111) = (  -0.1682252  -0.2719641   0.4895355), wk =   0.0145653
        k(  112) = (  -0.1121502  -0.2175713   0.4351426), wk =   0.0145653
        k(  113) = (  -0.0560751  -0.1631785   0.3807498), wk =   0.0145653
        k(  114) = (   0.0000000  -0.1087857   0.3263570), wk =   0.0072827
        k(  115) = (   0.4486007   0.2175713   0.0000000), wk =   0.0072827
        k(  116) = (  -0.2243003  -0.4351426   0.6527140), wk =   0.0145653
        k(  117) = (  -0.1682252  -0.3807498   0.5983211), wk =   0.0145653
        k(  118) = (  -0.1121502  -0.3263570   0.5439283), wk =   0.0145653
        k(  119) = (  -0.0560751  -0.2719641   0.4895355), wk =   0.0145653
        k(  120) = (   0.0000000  -0.2175713   0.4351426), wk =   0.0072827
        k(  121) = (  -0.1682252  -0.4895355   0.7071068), wk =   0.0072827
        k(  122) = (  -0.1121502  -0.4351426   0.6527140), wk =   0.0145653
        k(  123) = (  -0.0560751  -0.3807498   0.5983211), wk =   0.0145653
        k(  124) = (   0.0000000  -0.3263570   0.5439283), wk =   0.0072827
        k(  125) = (  -0.0560751  -0.4895355   0.7071068), wk =   0.0072827
        k(  126) = (  -0.0000000  -0.4351426   0.6527140), wk =   0.0072827
        k(  127) = (   0.0000000   0.3263570   0.0000000), wk =   0.0036413
        k(  128) = (   0.0560751   0.3807498  -0.0543928), wk =   0.0145653
        k(  129) = (   0.1121502   0.4351426  -0.1087857), wk =   0.0145653
        k(  130) = (   0.1682252   0.4895355  -0.1631785), wk =   0.0145653
        k(  131) = (  -0.5046757  -0.1631785   0.4895355), wk =   0.0145653
        k(  132) = (  -0.4486007  -0.1087857   0.4351426), wk =   0.0145653
        k(  133) = (  -0.3925256  -0.0543928   0.3807498), wk =   0.0145653
        k(  134) = (  -0.3364505   0.0000000   0.3263570), wk =   0.0072827
        k(  135) = (   0.1121502   0.3263570   0.0000000), wk =   0.0072827
        k(  136) = (   0.1682252   0.3807498  -0.0543928), wk =   0.0145653
        k(  137) = (   0.2243003   0.4351426  -0.1087857), wk =   0.0145653
        k(  138) = (  -0.4486007  -0.2175713   0.5439283), wk =   0.0145653
        k(  139) = (  -0.3925256  -0.1631785   0.4895355), wk =   0.0145653
        k(  140) = (  -0.3364505  -0.1087857   0.4351426), wk =   0.0145653
        k(  141) = (  -0.2803754  -0.0543928   0.3807498), wk =   0.0145653
        k(  142) = (  -0.2243003   0.0000000   0.3263570), wk =   0.0072827
        k(  143) = (  -0.2803754  -0.3807498   0.7071068), wk =   0.0072827
        k(  144) = (  -0.2243003  -0.3263570   0.6527140), wk =   0.0145653
        k(  145) = (  -0.1682252  -0.2719641   0.5983211), wk =   0.0145653
        k(  146) = (  -0.1121502  -0.2175713   0.5439283), wk =   0.0145653
        k(  147) = (  -0.0560751  -0.1631785   0.4895355), wk =   0.0145653
        k(  148) = (   0.0000000  -0.1087857   0.4351426), wk =   0.0072827
        k(  149) = (  -0.1682252  -0.3807498   0.7071068), wk =   0.0072827
        k(  150) = (  -0.1121502  -0.3263570   0.6527140), wk =   0.0145653
        k(  151) = (  -0.0560751  -0.2719641   0.5983211), wk =   0.0145653
        k(  152) = (   0.0000000  -0.2175713   0.5439283), wk =   0.0072827
        k(  153) = (  -0.0560751  -0.3807498   0.7071068), wk =   0.0072827
        k(  154) = (   0.0000000  -0.3263570   0.6527140), wk =   0.0072827
        k(  155) = (   0.0000000   0.4351426   0.0000000), wk =   0.0036413
        k(  156) = (   0.0560751   0.4895355  -0.0543928), wk =   0.0145653
        k(  157) = (   0.1121502   0.5439283  -0.1087857), wk =   0.0145653
        k(  158) = (  -0.5607508  -0.1087857   0.5439283), wk =   0.0145653
        k(  159) = (  -0.5046757  -0.0543928   0.4895355), wk =   0.0145653
        k(  160) = (  -0.4486007   0.0000000   0.4351426), wk =   0.0072827
        k(  161) = (   0.1121502   0.4351426   0.0000000), wk =   0.0072827
        k(  162) = (   0.1682252   0.4895355  -0.0543928), wk =   0.0145653
        k(  163) = (  -0.5046757  -0.1631785   0.5983211), wk =   0.0145653
        k(  164) = (  -0.4486007  -0.1087857   0.5439283), wk =   0.0145653
        k(  165) = (  -0.3925256  -0.0543928   0.4895355), wk =   0.0145653
        k(  166) = (  -0.3364505   0.0000000   0.4351426), wk =   0.0072827
        k(  167) = (   0.2243003   0.4351426   0.0000000), wk =   0.0072827
        k(  168) = (  -0.4486007  -0.2175713   0.6527140), wk =   0.0145653
        k(  169) = (  -0.3925256  -0.1631785   0.5983211), wk =   0.0145653
        k(  170) = (  -0.1682252  -0.2719641   0.7071068), wk =   0.0072827
        k(  171) = (  -0.1121502  -0.2175713   0.6527140), wk =   0.0145653
        k(  172) = (  -0.0560751  -0.1631785   0.5983211), wk =   0.0145653
        k(  173) = (   0.0000000  -0.1087857   0.5439283), wk =   0.0072827
        k(  174) = (  -0.0560751  -0.2719641   0.7071068), wk =   0.0072827
        k(  175) = (  -0.0000000  -0.2175713   0.6527140), wk =   0.0072827
        k(  176) = (   0.0000000   0.5439283   0.0000000), wk =   0.0036413
        k(  177) = (   0.0560751   0.5983211  -0.0543928), wk =   0.0145653
        k(  178) = (  -0.6168259  -0.0543928   0.5983211), wk =   0.0145653
        k(  179) = (  -0.5607508   0.0000000   0.5439283), wk =   0.0072827
        k(  180) = (   0.1121502   0.5439283  -0.0000000), wk =   0.0072827
        k(  181) = (  -0.5607508  -0.1087857   0.6527140), wk =   0.0145653
        k(  182) = (  -0.5046757  -0.0543928   0.5983211), wk =   0.0145653
        k(  183) = (  -0.4486007  -0.0000000   0.5439283), wk =   0.0072827
        k(  184) = (  -0.5046757  -0.1631785   0.7071068), wk =   0.0072827
        k(  185) = (  -0.4486007  -0.1087857   0.6527140), wk =   0.0145653
        k(  186) = (  -0.3925256  -0.0543928   0.5983211), wk =   0.0145653
        k(  187) = (  -0.3364505   0.0000000   0.5439283), wk =   0.0072827
        k(  188) = (  -0.0560751  -0.1631785   0.7071068), wk =   0.0072827
        k(  189) = (   0.0000000  -0.1087857   0.6527140), wk =   0.0072827
        k(  190) = (   0.0000000   0.6527140   0.0000000), wk =   0.0036413
        k(  191) = (  -0.6729010   0.0000000   0.6527140), wk =   0.0072827
        k(  192) = (  -0.6168259  -0.0543928   0.7071068), wk =   0.0072827
        k(  193) = (  -0.5607508   0.0000000   0.6527140), wk =   0.0072827
        k(  194) = (  -0.5046757  -0.0543928   0.7071068), wk =   0.0072827
        k(  195) = (  -0.4486007   0.0000000   0.6527140), wk =   0.0072827
        k(  196) = (  -0.3925256  -0.0543928   0.7071068), wk =   0.0072827

                       cryst. coord.
        k(    1) = (   0.0000000   0.0000000   0.0000000), wk =   0.0009103
        k(    2) = (   0.0000000   0.0000000   0.0769231), wk =   0.0072827
        k(    3) = (   0.0000000   0.0000000   0.1538462), wk =   0.0072827
        k(    4) = (   0.0000000   0.0000000   0.2307692), wk =   0.0072827
        k(    5) = (   0.0000000   0.0000000   0.3076923), wk =   0.0072827
        k(    6) = (   0.0000000   0.0000000   0.3846154), wk =   0.0072827
        k(    7) = (   0.0000000   0.0000000   0.4615385), wk =   0.0072827
        k(    8) = (   0.0000000   0.0769231   0.0769231), wk =   0.0018207
        k(    9) = (   0.0000000   0.0769231   0.1538462), wk =   0.0072827
        k(   10) = (   0.0000000   0.0769231   0.2307692), wk =   0.0072827
        k(   11) = (   0.0000000   0.0769231   0.3076923), wk =   0.0072827
        k(   12) = (   0.0000000   0.0769231   0.3846154), wk =   0.0072827
        k(   13) = (   0.0000000   0.0769231   0.4615385), wk =   0.0072827
        k(   14) = (   0.0000000   0.0769231  -0.4615385), wk =   0.0072827
        k(   15) = (   0.0000000   0.0769231  -0.3846154), wk =   0.0072827
        k(   16) = (   0.0000000   0.0769231  -0.3076923), wk =   0.0072827
        k(   17) = (   0.0000000   0.0769231  -0.2307692), wk =   0.0072827
        k(   18) = (   0.0000000   0.0769231  -0.1538462), wk =   0.0072827
        k(   19) = (   0.0000000   0.0769231  -0.0769231), wk =   0.0036413
        k(   20) = (   0.0000000   0.1538462   0.1538462), wk =   0.0018207
        k(   21) = (   0.0000000   0.1538462   0.2307692), wk =   0.0072827
        k(   22) = (   0.0000000   0.1538462   0.3076923), wk =   0.0072827
        k(   23) = (   0.0000000   0.1538462   0.3846154), wk =   0.0072827
        k(   24) = (   0.0000000   0.1538462   0.4615385), wk =   0.0072827
        k(   25) = (   0.0000000   0.1538462  -0.4615385), wk =   0.0072827
        k(   26) = (   0.0000000   0.1538462  -0.3846154), wk =   0.0072827
        k(   27) = (   0.0000000   0.1538462  -0.3076923), wk =   0.0072827
        k(   28) = (   0.0000000   0.1538462  -0.2307692), wk =   0.0072827
        k(   29) = (   0.0000000   0.1538462  -0.1538462), wk =   0.0036413
        k(   30) = (   0.0000000   0.2307692   0.2307692), wk =   0.0018207
        k(   31) = (   0.0000000   0.2307692   0.3076923), wk =   0.0072827
        k(   32) = (   0.0000000   0.2307692   0.3846154), wk =   0.0072827
        k(   33) = (   0.0000000   0.2307692   0.4615385), wk =   0.0072827
        k(   34) = (   0.0000000   0.2307692  -0.4615385), wk =   0.0072827
        k(   35) = (   0.0000000   0.2307692  -0.3846154), wk =   0.0072827
        k(   36) = (   0.0000000   0.2307692  -0.3076923), wk =   0.0072827
        k(   37) = (   0.0000000   0.2307692  -0.2307692), wk =   0.0036413
        k(   38) = (   0.0000000   0.3076923   0.3076923), wk =   0.0018207
        k(   39) = (   0.0000000   0.3076923   0.3846154), wk =   0.0072827
        k(   40) = (   0.0000000   0.3076923   0.4615385), wk =   0.0072827
        k(   41) = (   0.0000000   0.3076923  -0.4615385), wk =   0.0072827
        k(   42) = (   0.0000000   0.3076923  -0.3846154), wk =   0.0072827
        k(   43) = (   0.0000000   0.3076923  -0.3076923), wk =   0.0036413
        k(   44) = (   0.0000000   0.3846154   0.3846154), wk =   0.0018207
        k(   45) = (   0.0000000   0.3846154   0.4615385), wk =   0.0072827
        k(   46) = (   0.0000000   0.3846154  -0.4615385), wk =   0.0072827
        k(   47) = (   0.0000000   0.3846154  -0.3846154), wk =   0.0036413
        k(   48) = (   0.0000000   0.4615385   0.4615385), wk =   0.0018207
        k(   49) = (   0.0000000   0.4615385  -0.4615385), wk =   0.0036413
        k(   50) = (   0.0769231   0.0000000   0.0769231), wk =   0.0036413
        k(   51) = (   0.0769231   0.0000000   0.1538462), wk =   0.0145653
        k(   52) = (   0.0769231   0.0000000   0.2307692), wk =   0.0145653
        k(   53) = (   0.0769231   0.0000000   0.3076923), wk =   0.0145653
        k(   54) = (   0.0769231   0.0000000   0.3846154), wk =   0.0145653
        k(   55) = (   0.0769231   0.0000000   0.4615385), wk =   0.0145653
        k(   56) = (   0.0769231  -0.0000000  -0.4615385), wk =   0.0145653
        k(   57) = (   0.0769231   0.0000000  -0.3846154), wk =   0.0145653
        k(   58) = (   0.0769231   0.0000000  -0.3076923), wk =   0.0145653
        k(   59) = (   0.0769231  -0.0000000  -0.2307692), wk =   0.0145653
        k(   60) = (   0.0769231  -0.0000000  -0.1538462), wk =   0.0145653
        k(   61) = (   0.0769231  -0.0000000  -0.0769231), wk =   0.0072827
        k(   62) = (   0.0769231   0.1538462   0.2307692), wk =   0.0072827
        k(   63) = (   0.0769231   0.1538462   0.3076923), wk =   0.0145653
        k(   64) = (   0.0769231   0.1538462   0.3846154), wk =   0.0145653
        k(   65) = (   0.0769231   0.1538462   0.4615385), wk =   0.0145653
        k(   66) = (   0.0769231   0.1538462  -0.4615385), wk =   0.0145653
        k(   67) = (   0.0769231   0.1538462  -0.3846154), wk =   0.0145653
        k(   68) = (   0.0769231   0.1538462  -0.3076923), wk =   0.0145653
        k(   69) = (   0.0769231   0.1538462  -0.2307692), wk =   0.0145653
        k(   70) = (   0.0769231   0.1538462  -0.1538462), wk =   0.0145653
        k(   71) = (   0.0769231   0.1538462  -0.0769231), wk =   0.0072827
        k(   72) = (   0.0769231   0.2307692   0.3076923), wk =   0.0072827
        k(   73) = (   0.0769231   0.2307692   0.3846154), wk =   0.0145653
        k(   74) = (   0.0769231   0.2307692   0.4615385), wk =   0.0145653
        k(   75) = (   0.0769231   0.2307692  -0.4615385), wk =   0.0145653
        k(   76) = (   0.0769231   0.2307692  -0.3846154), wk =   0.0145653
        k(   77) = (   0.0769231   0.2307692  -0.3076923), wk =   0.0145653
        k(   78) = (   0.0769231   0.2307692  -0.2307692), wk =   0.0145653
        k(   79) = (   0.0769231   0.2307692  -0.1538462), wk =   0.0072827
        k(   80) = (   0.0769231   0.3076923   0.3846154), wk =   0.0072827
        k(   81) = (   0.0769231   0.3076923   0.4615385), wk =   0.0145653
        k(   82) = (   0.0769231   0.3076923  -0.4615385), wk =   0.0145653
        k(   83) = (   0.0769231   0.3076923  -0.3846154), wk =   0.0145653
        k(   84) = (   0.0769231   0.3076923  -0.3076923), wk =   0.0145653
        k(   85) = (   0.0769231   0.3076923  -0.2307692), wk =   0.0072827
        k(   86) = (   0.0769231   0.3846154   0.4615385), wk =   0.0072827
        k(   87) = (   0.0769231   0.3846154  -0.4615385), wk =   0.0145653
        k(   88) = (   0.0769231   0.3846154  -0.3846154), wk =   0.0145653
        k(   89) = (   0.0769231   0.3846154  -0.3076923), wk =   0.0072827
        k(   90) = (   0.0769231   0.4615385  -0.4615385), wk =   0.0072827
        k(   91) = (   0.0769231   0.4615385  -0.3846154), wk =   0.0072827
        k(   92) = (   0.1538462   0.0000000   0.1538462), wk =   0.0036413
        k(   93) = (   0.1538462   0.0000000   0.2307692), wk =   0.0145653
        k(   94) = (   0.1538462   0.0000000   0.3076923), wk =   0.0145653
        k(   95) = (   0.1538462   0.0000000   0.3846154), wk =   0.0145653
        k(   96) = (   0.1538462   0.0000000   0.4615385), wk =   0.0145653
        k(   97) = (   0.1538462  -0.0000000  -0.4615385), wk =   0.0145653
        k(   98) = (   0.1538462  -0.0000000  -0.3846154), wk =   0.0145653
        k(   99) = (   0.1538462  -0.0000000  -0.3076923), wk =   0.0145653
        k(  100) = (   0.1538462  -0.0000000  -0.2307692), wk =   0.0145653
        k(  101) = (   0.1538462  -0.0000000  -0.1538462), wk =   0.0072827
        k(  102) = (   0.1538462   0.0769231   0.2307692), wk =   0.0072827
        k(  103) = (   0.1538462   0.0769231   0.3076923), wk =   0.0145653
        k(  104) = (   0.1538462   0.0769231   0.3846154), wk =   0.0145653
        k(  105) = (   0.1538462   0.0769231   0.4615385), wk =   0.0145653
        k(  106) = (   0.1538462   0.0769231  -0.4615385), wk =   0.0145653
        k(  107) = (   0.1538462   0.2307692   0.3846154), wk =   0.0072827
        k(  108) = (   0.1538462   0.2307692   0.4615385), wk =   0.0145653
        k(  109) = (   0.1538462   0.2307692  -0.4615385), wk =   0.0145653
        k(  110) = (   0.1538462   0.2307692  -0.3846154), wk =   0.0145653
        k(  111) = (   0.1538462   0.2307692  -0.3076923), wk =   0.0145653
        k(  112) = (   0.1538462   0.2307692  -0.2307692), wk =   0.0145653
        k(  113) = (   0.1538462   0.2307692  -0.1538462), wk =   0.0145653
        k(  114) = (   0.1538462   0.2307692  -0.0769231), wk =   0.0072827
        k(  115) = (   0.1538462   0.3076923   0.4615385), wk =   0.0072827
        k(  116) = (   0.1538462   0.3076923  -0.4615385), wk =   0.0145653
        k(  117) = (   0.1538462   0.3076923  -0.3846154), wk =   0.0145653
        k(  118) = (   0.1538462   0.3076923  -0.3076923), wk =   0.0145653
        k(  119) = (   0.1538462   0.3076923  -0.2307692), wk =   0.0145653
        k(  120) = (   0.1538462   0.3076923  -0.1538462), wk =   0.0072827
        k(  121) = (   0.1538462   0.3846154  -0.4615385), wk =   0.0072827
        k(  122) = (   0.1538462   0.3846154  -0.3846154), wk =   0.0145653
        k(  123) = (   0.1538462   0.3846154  -0.3076923), wk =   0.0145653
        k(  124) = (   0.1538462   0.3846154  -0.2307692), wk =   0.0072827
        k(  125) = (   0.1538462   0.4615385  -0.3846154), wk =   0.0072827
        k(  126) = (   0.1538462   0.4615385  -0.3076923), wk =   0.0072827
        k(  127) = (   0.2307692   0.0000000   0.2307692), wk =   0.0036413
        k(  128) = (   0.2307692   0.0000000   0.3076923), wk =   0.0145653
        k(  129) = (   0.2307692   0.0000000   0.3846154), wk =   0.0145653
        k(  130) = (   0.2307692   0.0000000   0.4615385), wk =   0.0145653
        k(  131) = (   0.2307692  -0.0000000  -0.4615385), wk =   0.0145653
        k(  132) = (   0.2307692  -0.0000000  -0.3846154), wk =   0.0145653
        k(  133) = (   0.2307692  -0.0000000  -0.3076923), wk =   0.0145653
        k(  134) = (   0.2307692  -0.0000000  -0.2307692), wk =   0.0072827
        k(  135) = (   0.2307692   0.0769231   0.3076923), wk =   0.0072827
        k(  136) = (   0.2307692   0.0769231   0.3846154), wk =   0.0145653
        k(  137) = (   0.2307692   0.0769231   0.4615385), wk =   0.0145653
        k(  138) = (   0.2307692   0.0769231  -0.4615385), wk =   0.0145653
        k(  139) = (   0.2307692   0.0769231  -0.3846154), wk =   0.0145653
        k(  140) = (   0.2307692   0.0769231  -0.3076923), wk =   0.0145653
        k(  141) = (   0.2307692   0.0769231  -0.2307692), wk =   0.0145653
        k(  142) = (   0.2307692   0.0769231  -0.1538462), wk =   0.0072827
        k(  143) = (   0.2307692   0.3076923  -0.4615385), wk =   0.0072827
        k(  144) = (   0.2307692   0.3076923  -0.3846154), wk =   0.0145653
        k(  145) = (   0.2307692   0.3076923  -0.3076923), wk =   0.0145653
        k(  146) = (   0.2307692   0.3076923  -0.2307692), wk =   0.0145653
        k(  147) = (   0.2307692   0.3076923  -0.1538462), wk =   0.0145653
        k(  148) = (   0.2307692   0.3076923  -0.0769231), wk =   0.0072827
        k(  149) = (   0.2307692   0.3846154  -0.3846154), wk =   0.0072827
        k(  150) = (   0.2307692   0.3846154  -0.3076923), wk =   0.0145653
        k(  151) = (   0.2307692   0.3846154  -0.2307692), wk =   0.0145653
        k(  152) = (   0.2307692   0.3846154  -0.1538462), wk =   0.0072827
        k(  153) = (   0.2307692   0.4615385  -0.3076923), wk =   0.0072827
        k(  154) = (   0.2307692   0.4615385  -0.2307692), wk =   0.0072827
        k(  155) = (   0.3076923   0.0000000   0.3076923), wk =   0.0036413
        k(  156) = (   0.3076923   0.0000000   0.3846154), wk =   0.0145653
        k(  157) = (   0.3076923   0.0000000   0.4615385), wk =   0.0145653
        k(  158) = (   0.3076923   0.0000000  -0.4615385), wk =   0.0145653
        k(  159) = (   0.3076923   0.0000000  -0.3846154), wk =   0.0145653
        k(  160) = (   0.3076923  -0.0000000  -0.3076923), wk =   0.0072827
        k(  161) = (   0.3076923   0.0769231   0.3846154), wk =   0.0072827
        k(  162) = (   0.3076923   0.0769231   0.4615385), wk =   0.0145653
        k(  163) = (   0.3076923   0.0769231  -0.4615385), wk =   0.0145653
        k(  164) = (   0.3076923   0.0769231  -0.3846154), wk =   0.0145653
        k(  165) = (   0.3076923   0.0769231  -0.3076923), wk =   0.0145653
        k(  166) = (   0.3076923   0.0769231  -0.2307692), wk =   0.0072827
        k(  167) = (   0.3076923   0.1538462   0.4615385), wk =   0.0072827
        k(  168) = (   0.3076923   0.1538462  -0.4615385), wk =   0.0145653
        k(  169) = (   0.3076923   0.1538462  -0.3846154), wk =   0.0145653
        k(  170) = (   0.3076923   0.3846154  -0.3076923), wk =   0.0072827
        k(  171) = (   0.3076923   0.3846154  -0.2307692), wk =   0.0145653
        k(  172) = (   0.3076923   0.3846154  -0.1538462), wk =   0.0145653
        k(  173) = (   0.3076923   0.3846154  -0.0769231), wk =   0.0072827
        k(  174) = (   0.3076923   0.4615385  -0.2307692), wk =   0.0072827
        k(  175) = (   0.3076923   0.4615385  -0.1538462), wk =   0.0072827
        k(  176) = (   0.3846154   0.0000000   0.3846154), wk =   0.0036413
        k(  177) = (   0.3846154  -0.0000000   0.4615385), wk =   0.0145653
        k(  178) = (   0.3846154  -0.0000000  -0.4615385), wk =   0.0145653
        k(  179) = (   0.3846154  -0.0000000  -0.3846154), wk =   0.0072827
        k(  180) = (   0.3846154   0.0769231   0.4615385), wk =   0.0072827
        k(  181) = (   0.3846154   0.0769231  -0.4615385), wk =   0.0145653
        k(  182) = (   0.3846154   0.0769231  -0.3846154), wk =   0.0145653
        k(  183) = (   0.3846154   0.0769231  -0.3076923), wk =   0.0072827
        k(  184) = (   0.3846154   0.1538462  -0.4615385), wk =   0.0072827
        k(  185) = (   0.3846154   0.1538462  -0.3846154), wk =   0.0145653
        k(  186) = (   0.3846154   0.1538462  -0.3076923), wk =   0.0145653
        k(  187) = (   0.3846154   0.1538462  -0.2307692), wk =   0.0072827
        k(  188) = (   0.3846154   0.4615385  -0.1538462), wk =   0.0072827
        k(  189) = (   0.3846154   0.4615385  -0.0769231), wk =   0.0072827
        k(  190) = (   0.4615385   0.0000000   0.4615385), wk =   0.0036413
        k(  191) = (   0.4615385  -0.0000000  -0.4615385), wk =   0.0072827
        k(  192) = (   0.4615385   0.0769231  -0.4615385), wk =   0.0072827
        k(  193) = (   0.4615385   0.0769231  -0.3846154), wk =   0.0072827
        k(  194) = (   0.4615385   0.1538462  -0.3846154), wk =   0.0072827
        k(  195) = (   0.4615385   0.1538462  -0.3076923), wk =   0.0072827
        k(  196) = (   0.4615385   0.2307692  -0.3076923), wk =   0.0072827

     Dense  grid:    36115 G-vectors     FFT dimensions: (  48,  48,  48)

     Smooth grid:    12787 G-vectors     FFT dimensions: (  36,  36,  36)

     Dynamical RAM for                 wfc:       0.44 MB

     Dynamical RAM for     wfc (w. buffer):      86.41 MB

     Dynamical RAM for           str. fact:       0.55 MB

     Dynamical RAM for           local pot:       0.00 MB

     Dynamical RAM for          nlocal pot:       0.88 MB

     Dynamical RAM for                qrad:       1.52 MB

     Dynamical RAM for          rho,v,vnew:       4.18 MB

     Dynamical RAM for               rhoin:       1.39 MB

     Dynamical RAM for            rho*nmix:       8.82 MB

     Dynamical RAM for           G-vectors:       2.16 MB

     Dynamical RAM for          h,s,v(r/c):       0.06 MB

     Dynamical RAM for          <psi|beta>:       0.01 MB

     Dynamical RAM for                 psi:       0.88 MB

     Dynamical RAM for                hpsi:       0.88 MB

     Dynamical RAM for                spsi:       0.88 MB

     Dynamical RAM for      wfcinit/wfcrot:       0.88 MB

     Dynamical RAM for           addusdens:     103.60 MB

     Dynamical RAM for          addusforce:     104.99 MB

     Dynamical RAM for         addusstress:     110.77 MB

     Estimated static dynamical RAM per process >     102.43 MB

     Estimated max dynamical RAM per process >     222.01 MB

     Initial potential from superposition of free atoms

     starting charge      27.9984, renormalised to      28.0000
     Starting wfcs are   18 randomized atomic wfcs

     total cpu time spent up to now is       10.5 secs

     Self-consistent Calculation

     iteration #  1     ecut=    45.00 Ry     beta= 0.40
     Davidson diagonalization with overlap

---- Real-time Memory Report at c_bands before calling an iterative solver
           149 MiB given to the printing process from OS
             0 MiB allocation reported by mallinfo(arena+hblkhd)
           685 MiB available memory on the node where the printing process lives
------------------
     ethr =  1.00E-02,  avg # of iterations =  3.2

     Threshold (ethr) on eigenvalues was too large:
     Diagonalizing with lowered threshold

     Davidson diagonalization with overlap

---- Real-time Memory Report at c_bands before calling an iterative solver
           239 MiB given to the printing process from OS
             0 MiB allocation reported by mallinfo(arena+hblkhd)
           598 MiB available memory on the node where the printing process lives
------------------
     ethr =  1.08E-04,  avg # of iterations =  2.8

     total cpu time spent up to now is       68.1 secs

     total energy              =    -426.38221150 Ry
     estimated scf accuracy    <       0.03155103 Ry

     iteration #  2     ecut=    45.00 Ry     beta= 0.40
     Davidson diagonalization with overlap

---- Real-time Memory Report at c_bands before calling an iterative solver
           245 MiB given to the printing process from OS
             0 MiB allocation reported by mallinfo(arena+hblkhd)
           553 MiB available memory on the node where the printing process lives
------------------
     ethr =  1.13E-04,  avg # of iterations =  1.0

     total cpu time spent up to now is       92.4 secs

     total energy              =    -426.38014184 Ry
     estimated scf accuracy    <       0.00921649 Ry

     iteration #  3     ecut=    45.00 Ry     beta= 0.40
     Davidson diagonalization with overlap

---- Real-time Memory Report at c_bands before calling an iterative solver
           246 MiB given to the printing process from OS
             0 MiB allocation reported by mallinfo(arena+hblkhd)
           555 MiB available memory on the node where the printing process lives
------------------
     ethr =  3.29E-05,  avg # of iterations =  1.8

     total cpu time spent up to now is      118.2 secs

     total energy              =    -426.38057364 Ry
     estimated scf accuracy    <       0.00008951 Ry

     iteration #  4     ecut=    45.00 Ry     beta= 0.40
     Davidson diagonalization with overlap

---- Real-time Memory Report at c_bands before calling an iterative solver
           246 MiB given to the printing process from OS
             0 MiB allocation reported by mallinfo(arena+hblkhd)
           574 MiB available memory on the node where the printing process lives
------------------
     ethr =  3.20E-07,  avg # of iterations =  3.0

     total cpu time spent up to now is      151.6 secs

     total energy              =    -426.38059248 Ry
     estimated scf accuracy    <       0.00000471 Ry

     iteration #  5     ecut=    45.00 Ry     beta= 0.40
     Davidson diagonalization with overlap

---- Real-time Memory Report at c_bands before calling an iterative solver
           246 MiB given to the printing process from OS
             0 MiB allocation reported by mallinfo(arena+hblkhd)
           475 MiB available memory on the node where the printing process lives
------------------
     ethr =  1.68E-08,  avg # of iterations =  2.0

     total cpu time spent up to now is      183.4 secs

     total energy              =    -426.38059356 Ry
     estimated scf accuracy    <       0.00000036 Ry

     iteration #  6     ecut=    45.00 Ry     beta= 0.40
     Davidson diagonalization with overlap

---- Real-time Memory Report at c_bands before calling an iterative solver
           247 MiB given to the printing process from OS
             0 MiB allocation reported by mallinfo(arena+hblkhd)
           478 MiB available memory on the node where the printing process lives
------------------
     ethr =  1.29E-09,  avg # of iterations =  2.0

     total cpu time spent up to now is      211.5 secs

     total energy              =    -426.38059360 Ry
     estimated scf accuracy    <       0.00000005 Ry

     iteration #  7     ecut=    45.00 Ry     beta= 0.40
     Davidson diagonalization with overlap

---- Real-time Memory Report at c_bands before calling an iterative solver
           248 MiB given to the printing process from OS
             0 MiB allocation reported by mallinfo(arena+hblkhd)
           480 MiB available memory on the node where the printing process lives
------------------
     ethr =  1.78E-10,  avg # of iterations =  2.0

     total cpu time spent up to now is      246.3 secs

     total energy              =    -426.38059361 Ry
     estimated scf accuracy    <          4.3E-09 Ry

     iteration #  8     ecut=    45.00 Ry     beta= 0.40
     Davidson diagonalization with overlap

---- Real-time Memory Report at c_bands before calling an iterative solver
           248 MiB given to the printing process from OS
             0 MiB allocation reported by mallinfo(arena+hblkhd)
           385 MiB available memory on the node where the printing process lives
------------------
     ethr =  1.54E-11,  avg # of iterations =  2.0

     total cpu time spent up to now is      289.0 secs

     total energy              =    -426.38059362 Ry
     estimated scf accuracy    <          8.1E-10 Ry

     iteration #  9     ecut=    45.00 Ry     beta= 0.40
     Davidson diagonalization with overlap

---- Real-time Memory Report at c_bands before calling an iterative solver
           248 MiB given to the printing process from OS
             0 MiB allocation reported by mallinfo(arena+hblkhd)
           379 MiB available memory on the node where the printing process lives
------------------
     ethr =  2.89E-12,  avg # of iterations =  2.0

     total cpu time spent up to now is      330.0 secs

     End of self-consistent calculation

          k = 0.0000 0.0000 0.0000 (  1575 PWs)   bands (ev):

   -16.7674 -16.7595 -16.7595 -16.7295 -16.7258 -16.5339 -16.5339 -16.5226
   -16.5225 -16.5152  -4.5955   7.7645   7.9362   7.9362   8.1601  10.4368
    10.5827  10.5827

     occupation numbers 
     1.0000   1.0000   1.0000   1.0000   1.0000   1.0000   1.0000   1.0000
     1.0000   1.0000   1.0000   0.9824   0.5793   0.5793   0.1113   0.0000
     0.0000   0.0000

          k = 0.0561 0.0544-0.0544 (  1582 PWs)   bands (ev):

   -16.7694 -16.7631 -16.7600 -16.7246 -16.7213 -16.5386 -16.5379 -16.5285
   -16.5136 -16.5121  -4.5247   6.5076   7.7931   7.9478   8.7878  10.6334
    10.7658  10.8698

     occupation numbers 
     1.0000   1.0000   1.0000   1.0000   1.0000   1.0000   1.0000   1.0000
     1.0000   1.0000   1.0000   1.0000   0.9335   0.5474   0.0000   0.0000
     0.0000   0.0000

          k = 0.1122 0.1088-0.1088 (  1580 PWs)   bands (ev):

   -16.7751 -16.7695 -16.7586 -16.7144 -16.7118 -16.5477 -16.5454 -16.5324
   -16.5067 -16.5050  -4.3144   5.0504   7.4730   7.6480   8.8552  11.0854
    11.1637  11.8287

     occupation numbers 
     1.0000   1.0000   1.0000   1.0000   1.0000   1.0000   1.0000   1.0000
     1.0000   1.0000   1.0000   1.0000   1.0459   1.0801   0.0000   0.0000
     0.0000   0.0000

          k = 0.1682 0.1632-0.1632 (  1587 PWs)   bands (ev):

   -16.7811 -16.7749 -16.7552 -16.7042 -16.7020 -16.5562 -16.5524 -16.5369
   -16.5022 -16.4980  -3.9730   3.6394   7.1279   7.3294   8.6050  11.5126
    11.5142  13.1076

     occupation numbers 
     1.0000   1.0000   1.0000   1.0000   1.0000   1.0000   1.0000   1.0000
     1.0000   1.0000   1.0000   1.0000   1.0005   1.0113   0.0001   0.0000
     0.0000   0.0000

          k = 0.2243 0.2176-0.2176 (  1593 PWs)   bands (ev):

   -16.7855 -16.7784 -16.7514 -16.6961 -16.6944 -16.5625 -16.5575 -16.5415
   -16.4993 -16.4928  -3.5218   2.3547   6.8359   7.0637   8.3436  11.6602
    11.7593  14.4502

     occupation numbers 
     1.0000   1.0000   1.0000   1.0000   1.0000   1.0000   1.0000   1.0000
     1.0000   1.0000   1.0000   1.0000   1.0000   1.0002   0.0114   0.0000
     0.0000   0.0000

          k = 0.2804 0.2720-0.2720 (  1599 PWs)   bands (ev):

   -16.7881 -16.7802 -16.7481 -16.6912 -16.6898 -16.5661 -16.5601 -16.5453
   -16.4979 -16.4896  -3.0177   1.2826   6.6303   6.8786   8.1519  11.6548
    11.8226  15.0946

     occupation numbers 
     1.0000   1.0000   1.0000   1.0000   1.0000   1.0000   1.0000   1.0000
     1.0000   1.0000   1.0000   1.0000   1.0000   1.0000   0.1208   0.0000
     0.0000   0.0000

          k = 0.3365 0.3264-0.3264 (  1594 PWs)   bands (ev):

   -16.7892 -16.7809 -16.7462 -16.6891 -16.6878 -16.5677 -16.5610 -16.5474
   -16.4973 -16.4881  -2.6204   0.5980   6.5248   6.7844   8.0527  11.6176
    11.8152  14.9949

     occupation numbers 
     1.0000   1.0000   1.0000   1.0000   1.0000   1.0000   1.0000   1.0000
     1.0000   1.0000   1.0000   1.0000   1.0000   1.0000   0.2849   0.0000
     0.0000   0.0000

          k = 0.1122 0.0000 0.0000 (  1599 PWs)   bands (ev):

   -16.7692 -16.7614 -16.7614 -16.7263 -16.7183 -16.5422 -16.5310 -16.5310
   -16.5182 -16.5100  -4.4979   6.5076   7.5382   7.5382   9.3789  10.1168
    11.0919  11.0919

     occupation numbers 
     1.0000   1.0000   1.0000   1.0000   1.0000   1.0000   1.0000   1.0000
     1.0000   1.0000   1.0000   1.0000   1.0680   1.0680   0.0000   0.0000
     0.0000   0.0000

          k = 0.1682 0.0544-0.0544 (  1593 PWs)   bands (ev):

   -16.7736 -16.7656 -16.7607 -16.7195 -16.7090 -16.5538 -16.5341 -16.5306
   -16.5158 -16.5044  -4.3306   5.3850   7.1758   7.3087   9.6593  10.1549
    11.5788  11.8392

     occupation numbers 
     1.0000   1.0000   1.0000   1.0000   1.0000   1.0000   1.0000   1.0000
     1.0000   1.0000   1.0000   1.0000   1.0012   1.0087   0.0000   0.0000
     0.0000   0.0000

          k = 0.2243 0.1088-0.1088 (  1600 PWs)   bands (ev):

   -16.7807 -16.7710 -16.7560 -16.7099 -16.6984 -16.5637 -16.5418 -16.5350
   -16.5099 -16.4973  -4.0289   4.0319   6.8314   6.9978   9.4358  10.6568
    11.9874  12.8120

     occupation numbers 
     1.0000   1.0000   1.0000   1.0000   1.0000   1.0000   1.0000   1.0000
     1.0000   1.0000   1.0000   1.0000   1.0000   1.0000   0.0000   0.0000
     0.0000   0.0000

          k = 0.2804 0.1632-0.1632 (  1602 PWs)   bands (ev):

   -16.7869 -16.7754 -16.7500 -16.7007 -16.6899 -16.5704 -16.5491 -16.5419
   -16.5049 -16.4909  -3.6087   2.7327   6.5647   6.6580   9.1525  11.1762
    12.1509  13.6190

     occupation numbers 
     1.0000   1.0000   1.0000   1.0000   1.0000   1.0000   1.0000   1.0000
     1.0000   1.0000   1.0000   1.0000   1.0000   1.0000   0.0000   0.0000
     0.0000   0.0000

          k = 0.3365 0.2176-0.2176 (  1597 PWs)   bands (ev):

   -16.7912 -16.7786 -16.7442 -16.6934 -16.6852 -16.5727 -16.5553 -16.5491
   -16.5009 -16.4862  -3.1109   1.5959   6.3684   6.4015   8.9161  11.4755
    12.0964  14.3987

     occupation numbers 
     1.0000   1.0000   1.0000   1.0000   1.0000   1.0000   1.0000   1.0000
     1.0000   1.0000   1.0000   1.0000   1.0000   1.0000   0.0000   0.0000
     0.0000   0.0000

          k = 0.3925 0.2720-0.2720 (  1597 PWs)   bands (ev):

   -16.7935 -16.7808 -16.7402 -16.6879 -16.6844 -16.5712 -16.5608 -16.5544
   -16.4977 -16.4837  -2.6514   0.7649   6.1607   6.3510   8.7622  11.5953
    11.9615  15.0595

     occupation numbers 
     1.0000   1.0000   1.0000   1.0000   1.0000   1.0000   1.0000   1.0000
     1.0000   1.0000   1.0000   1.0000   1.0000   1.0000   0.0000   0.0000
     0.0000   0.0000

          k =-0.2804-0.3807 0.3807 (  1601 PWs)   bands (ev):

   -16.7939 -16.7825 -16.7391 -16.6861 -16.6844 -16.5689 -16.5656 -16.5550
   -16.4952 -16.4836  -2.5006   0.5216   6.0491   6.4140   8.7049  11.6818
    11.8408  15.2893

     occupation numbers 
     1.0000   1.0000   1.0000   1.0000   1.0000   1.0000   1.0000   1.0000
     1.0000   1.0000   1.0000   1.0000   1.0000   1.0000   0.0000   0.0000
     0.0000   0.0000

          k =-0.2243-0.3264 0.3264 (  1600 PWs)   bands (ev):

   -16.7925 -16.7833 -16.7416 -16.6891 -16.6833 -16.5688 -16.5680 -16.5493
   -16.4935 -16.4859  -2.8058   1.0146   6.0429   6.5845   8.7481  11.7564
    11.7963  15.2655

     occupation numbers 
     1.0000   1.0000   1.0000   1.0000   1.0000   1.0000   1.0000   1.0000
     1.0000   1.0000   1.0000   1.0000   1.0000   1.0000   0.0000   0.0000
     0.0000   0.0000

          k =-0.1682-0.2720 0.2720 (  1593 PWs)   bands (ev):

   -16.7892 -16.7829 -16.7465 -16.6935 -16.6860 -16.5688 -16.5662 -16.5407
   -16.4934 -16.4905  -3.3026   1.9716   6.1509   6.8491   8.8858  11.6614
    11.8982  14.5130

     occupation numbers 
     1.0000   1.0000   1.0000   1.0000   1.0000   1.0000   1.0000   1.0000
     1.0000   1.0000   1.0000   1.0000   1.0000   1.0000   0.0000   0.0000
     0.0000   0.0000

          k =-0.1122-0.2176 0.2176 (  1580 PWs)   bands (ev):

   -16.7841 -16.7805 -16.7526 -16.6998 -16.6931 -16.5648 -16.5620 -16.5317
   -16.4974 -16.4951  -3.7795   3.1585   6.3833   7.1821   9.0938  11.4566
    11.8235  13.4117

     occupation numbers 
     1.0000   1.0000   1.0000   1.0000   1.0000   1.0000   1.0000   1.0000
     1.0000   1.0000   1.0000   1.0000   1.0000   1.0014   0.0000   0.0000
     0.0000   0.0000

          k =-0.0561-0.1632 0.1632 (  1580 PWs)   bands (ev):

   -16.7777 -16.7759 -16.7579 -16.7079 -16.7037 -16.5572 -16.5553 -16.5238
   -16.5063 -16.4990  -4.1581   4.4436   6.7596   7.5310   9.2914  11.1087
    11.3919  12.4420

     occupation numbers 
     1.0000   1.0000   1.0000   1.0000   1.0000   1.0000   1.0000   1.0000
     1.0000   1.0000   1.0000   1.0000   1.0000   1.0657   0.0000   0.0000
     0.0000   0.0000

          k = 0.0000-0.1088 0.1088 (  1575 PWs)   bands (ev):

   -16.7719 -16.7694 -16.7605 -16.7164 -16.7153 -16.5477 -16.5469 -16.5184
   -16.5163 -16.5048  -4.4102   5.6604   7.3284   7.7859   9.2144  10.7911
    10.9161  11.5149

     occupation numbers 
     1.0000   1.0000   1.0000   1.0000   1.0000   1.0000   1.0000   1.0000
     1.0000   1.0000   1.0000   1.0000   1.0112   0.9467   0.0000   0.0000
     0.0000   0.0000

          k = 0.2243 0.0000 0.0000 (  1591 PWs)   bands (ev):

   -16.7707 -16.7666 -16.7666 -16.7166 -16.6996 -16.5678 -16.5269 -16.5228
   -16.5228 -16.5053  -4.2062   5.0952   6.7943   6.7943   9.4932  10.5116
    12.1647  12.1647

     occupation numbers 
     1.0000   1.0000   1.0000   1.0000   1.0000   1.0000   1.0000   1.0000
     1.0000   1.0000   1.0000   1.0000   1.0000   1.0000   0.0000   0.0000
     0.0000   0.0000

          k = 0.2804 0.0544-0.0544 (  1595 PWs)   bands (ev):

   -16.7777 -16.7707 -16.7615 -16.7084 -16.6882 -16.5807 -16.5364 -16.5239
   -16.5147 -16.5008  -3.9454   4.1431   6.4267   6.4427   9.4692  10.6389
    12.6952  12.7836

     occupation numbers 
     1.0000   1.0000   1.0000   1.0000   1.0000   1.0000   1.0000   1.0000
     1.0000   1.0000   1.0000   1.0000   1.0000   1.0000   0.0000   0.0000
     0.0000   0.0000

          k = 0.3365 0.1088-0.1088 (  1601 PWs)   bands (ev):

   -16.7866 -16.7751 -16.7518 -16.6988 -16.6783 -16.5901 -16.5464 -16.5333
   -16.5074 -16.4919  -3.5598   2.9893   6.0074   6.1777   9.6347  10.8017
    12.9478  12.9657

     occupation numbers 
     1.0000   1.0000   1.0000   1.0000   1.0000   1.0000   1.0000   1.0000
     1.0000   1.0000   1.0000   1.0000   1.0000   1.0000   0.0000   0.0000
     0.0000   0.0000

          k = 0.3925 0.1632-0.1632 (  1594 PWs)   bands (ev):

   -16.7941 -16.7790 -16.7411 -16.6895 -16.6728 -16.5938 -16.5559 -16.5452
   -16.5012 -16.4837  -3.0787   1.8783   5.6087   6.0249   9.5567  11.3019
    12.9418  13.0932

     occupation numbers 
     1.0000   1.0000   1.0000   1.0000   1.0000   1.0000   1.0000   1.0000
     1.0000   1.0000   1.0000   1.0000   1.0000   1.0000   0.0000   0.0000
     0.0000   0.0000

          k = 0.4486 0.2176-0.2176 (  1591 PWs)   bands (ev):

   -16.7993 -16.7822 -16.7318 -16.6814 -16.6730 -16.5907 -16.5651 -16.5565
   -16.4961 -16.4779  -2.5838   0.9700   5.2898   5.9944   9.4264  11.6224
    12.7649  13.7843

     occupation numbers 
     1.0000   1.0000   1.0000   1.0000   1.0000   1.0000   1.0000   1.0000
     1.0000   1.0000   1.0000   1.0000   1.0000   1.0000   0.0000   0.0000
     0.0000   0.0000

          k =-0.2243-0.4351 0.4351 (  1597 PWs)   bands (ev):

   -16.8018 -16.7848 -16.7261 -16.6777 -16.6749 -16.5817 -16.5735 -16.5651
   -16.4921 -16.4753  -2.2996   0.5193   5.0778   6.0865   9.3680  11.7386
    12.5603  14.8772

     occupation numbers 
     1.0000   1.0000   1.0000   1.0000   1.0000   1.0000   1.0000   1.0000
     1.0000   1.0000   1.0000   1.0000   1.0000   1.0000   0.0000   0.0000
     0.0000   0.0000

          k =-0.1682-0.3807 0.3807 (  1601 PWs)   bands (ev):

   -16.8014 -16.7866 -16.7262 -16.6841 -16.6712 -16.5798 -16.5704 -16.5682
   -16.4894 -16.4764  -2.4858   0.7927   4.9924   6.2935   9.4060  11.8560
    12.3696  15.3654

     occupation numbers 
     1.0000   1.0000   1.0000   1.0000   1.0000   1.0000   1.0000   1.0000
     1.0000   1.0000   1.0000   1.0000   1.0000   1.0000   0.0000   0.0000
     0.0000   0.0000

          k =-0.1122-0.3264 0.3264 (  1601 PWs)   bands (ev):

   -16.7979 -16.7870 -16.7326 -16.6900 -16.6724 -16.5814 -16.5710 -16.5536
   -16.4885 -16.4812  -2.9597   1.5927   5.0583   6.5972   9.5270  12.0160
    12.1565  14.2831

     occupation numbers 
     1.0000   1.0000   1.0000   1.0000   1.0000   1.0000   1.0000   1.0000
     1.0000   1.0000   1.0000   1.0000   1.0000   1.0000   0.0000   0.0000
     0.0000   0.0000

          k =-0.0561-0.2720 0.2720 (  1591 PWs)   bands (ev):

   -16.7919 -16.7854 -16.7425 -16.6954 -16.6796 -16.5772 -16.5685 -16.5389
   -16.4897 -16.4893  -3.4553   2.6051   5.3199   6.9617   9.6761  11.8341
    12.0619  13.2774

     occupation numbers 
     1.0000   1.0000   1.0000   1.0000   1.0000   1.0000   1.0000   1.0000
     1.0000   1.0000   1.0000   1.0000   1.0000   1.0000   0.0000   0.0000
     0.0000   0.0000

          k = 0.0000-0.2176 0.2176 (  1582 PWs)   bands (ev):

   -16.7843 -16.7816 -16.7521 -16.7015 -16.6910 -16.5684 -16.5631 -16.5270
   -16.4995 -16.4932  -3.8670   3.6148   5.8639   7.3161   9.6890  11.4116
    11.6609  12.8966

     occupation numbers 
     1.0000   1.0000   1.0000   1.0000   1.0000   1.0000   1.0000   1.0000
     1.0000   1.0000   1.0000   1.0000   1.0000   1.0096   0.0000   0.0000
     0.0000   0.0000

          k = 0.3365 0.0000 0.0000 (  1587 PWs)   bands (ev):

   -16.7734 -16.7734 -16.7674 -16.7013 -16.6749 -16.5976 -16.5410 -16.5116
   -16.5116 -16.5086  -3.7249   3.7144   6.0788   6.0788   8.9170  10.7778
    13.4163  13.4163

     occupation numbers 
     1.0000   1.0000   1.0000   1.0000   1.0000   1.0000   1.0000   1.0000
     1.0000   1.0000   1.0000   1.0000   1.0000   1.0000   0.0000   0.0000
     0.0000   0.0000

          k = 0.3925 0.0544-0.0544 (  1607 PWs)   bands (ev):

   -16.7824 -16.7772 -16.7572 -16.6915 -16.6626 -16.6112 -16.5507 -16.5228
   -16.5052 -16.4976  -3.3757   2.8909   5.6668   5.8004   8.9699  10.6038
    13.5890  13.9057

     occupation numbers 
     1.0000   1.0000   1.0000   1.0000   1.0000   1.0000   1.0000   1.0000
     1.0000   1.0000   1.0000   1.0000   1.0000   1.0000   0.0000   0.0000
     0.0000   0.0000

          k = 0.4486 0.1088-0.1088 (  1605 PWs)   bands (ev):

   -16.7925 -16.7809 -16.7428 -16.6811 -16.6543 -16.6191 -16.5616 -16.5386
   -16.4989 -16.4857  -2.9185   1.9491   5.1525   5.6364   9.2298  10.8183
    13.3430  14.0184

     occupation numbers 
     1.0000   1.0000   1.0000   1.0000   1.0000   1.0000   1.0000   1.0000
     1.0000   1.0000   1.0000   1.0000   1.0000   1.0000   0.0000   0.0000
     0.0000   0.0000

          k = 0.5047 0.1632-0.1632 (  1601 PWs)   bands (ev):

   -16.8009 -16.7842 -16.7285 -16.6711 -16.6532 -16.6185 -16.5729 -16.5542
   -16.4934 -16.4762  -2.4097   1.0745   4.6887   5.5990   9.2890  11.6518
    13.1535  13.8654

     occupation numbers 
     1.0000   1.0000   1.0000   1.0000   1.0000   1.0000   1.0000   1.0000
     1.0000   1.0000   1.0000   1.0000   1.0000   1.0000   0.0000   0.0000
     0.0000   0.0000

          k =-0.1682-0.4895 0.4895 (  1602 PWs)   bands (ev):

   -16.8064 -16.7870 -16.7176 -16.6623 -16.6594 -16.6100 -16.5837 -16.5661
   -16.4891 -16.4702  -2.0204   0.4964   4.3515   5.6901   9.3181  12.4924
    13.4320  13.6138

     occupation numbers 
     1.0000   1.0000   1.0000   1.0000   1.0000   1.0000   1.0000   1.0000
     1.0000   1.0000   1.0000   1.0000   1.0000   1.0000   0.0000   0.0000
     0.0000   0.0000

          k =-0.1122-0.4351 0.4351 (  1594 PWs)   bands (ev):

   -16.8082 -16.7889 -16.7130 -16.6707 -16.6567 -16.5953 -16.5919 -16.5722
   -16.4863 -16.4685  -2.0740   0.5538   4.1821   5.9024   9.4287  12.6627
    13.3275  14.6099

     occupation numbers 
     1.0000   1.0000   1.0000   1.0000   1.0000   1.0000   1.0000   1.0000
     1.0000   1.0000   1.0000   1.0000   1.0000   1.0000   0.0000   0.0000
     0.0000   0.0000

          k =-0.0561-0.3807 0.3807 (  1591 PWs)   bands (ev):

   -16.8060 -16.7896 -16.7168 -16.6825 -16.6577 -16.5938 -16.5787 -16.5711
   -16.4854 -16.4716  -2.5117   1.1619   4.2308   6.2171   9.6156  12.7656
    12.9600  14.1083

     occupation numbers 
     1.0000   1.0000   1.0000   1.0000   1.0000   1.0000   1.0000   1.0000
     1.0000   1.0000   1.0000   1.0000   1.0000   1.0000   0.0000   0.0000
     0.0000   0.0000

          k = 0.0000-0.3264 0.3264 (  1584 PWs)   bands (ev):

   -16.8002 -16.7885 -16.7284 -16.6902 -16.6665 -16.5879 -16.5732 -16.5550
   -16.4864 -16.4791  -3.0176   1.9246   4.5820   6.5957   9.7843  12.4283
    12.7764  13.0820

     occupation numbers 
     1.0000   1.0000   1.0000   1.0000   1.0000   1.0000   1.0000   1.0000
     1.0000   1.0000   1.0000   1.0000   1.0000   1.0000   0.0000   0.0000
     0.0000   0.0000

          k = 0.4486 0.0000 0.0000 (  1599 PWs)   bands (ev):

   -16.7802 -16.7802 -16.7579 -16.6813 -16.6468 -16.6297 -16.5596 -16.5197
   -16.5004 -16.5004  -3.0617   2.3737   5.5017   5.5017   8.5169  10.1327
    14.7288  14.7288

     occupation numbers 
     1.0000   1.0000   1.0000   1.0000   1.0000   1.0000   1.0000   1.0000
     1.0000   1.0000   1.0000   1.0000   1.0000   1.0000   0.0006   0.0000
     0.0000   0.0000

          k = 0.5047 0.0544-0.0544 (  1610 PWs)   bands (ev):

   -16.7875 -16.7832 -16.7456 -16.6700 -16.6432 -16.6342 -16.5708 -16.5336
   -16.4951 -16.4905  -2.6323   1.6493   5.1018   5.3157   8.6544   9.9126
    14.7688  15.1470

     occupation numbers 
     1.0000   1.0000   1.0000   1.0000   1.0000   1.0000   1.0000   1.0000
     1.0000   1.0000   1.0000   1.0000   1.0000   1.0000   0.0000   0.0000
     0.0000   0.0000

          k = 0.5608 0.1088-0.1088 (  1608 PWs)   bands (ev):

   -16.7974 -16.7860 -16.7283 -16.6587 -16.6494 -16.6274 -16.5829 -16.5520
   -16.4904 -16.4792  -2.1249   0.8990   4.5437   5.2572   8.8990  10.3573
    14.4896  15.1205

     occupation numbers 
     1.0000   1.0000   1.0000   1.0000   1.0000   1.0000   1.0000   1.0000
     1.0000   1.0000   1.0000   1.0000   1.0000   1.0000   0.0000   0.0000
     0.0000   0.0000

          k =-0.1122-0.5439 0.5439 (  1604 PWs)   bands (ev):

   -16.8057 -16.7884 -16.7138 -16.6482 -16.6455 -16.6297 -16.5951 -16.5670
   -16.4868 -16.4704  -1.6619   0.2981   4.0604   5.3302   8.9969  11.4648
    14.2488  14.8538

     occupation numbers 
     1.0000   1.0000   1.0000   1.0000   1.0000   1.0000   1.0000   1.0000
     1.0000   1.0000   1.0000   1.0000   1.0000   1.0000   0.0000   0.0000
     0.0000   0.0000

          k =-0.0561-0.4895 0.4895 (  1605 PWs)   bands (ev):

   -16.8103 -16.7900 -16.7070 -16.6477 -16.6415 -16.6254 -16.6043 -16.5739
   -16.4846 -16.4656  -1.5969   0.2023   3.7822   5.5292   9.1479  12.8666
    14.0979  14.4404

     occupation numbers 
     1.0000   1.0000   1.0000   1.0000   1.0000   1.0000   1.0000   1.0000
     1.0000   1.0000   1.0000   1.0000   1.0000   1.0000   0.0000   0.0000
     0.0000   0.0000

          k = 0.0000-0.4351 0.4351 (  1600 PWs)   bands (ev):

   -16.8105 -16.7906 -16.7078 -16.6671 -16.6452 -16.6034 -16.6022 -16.5746
   -16.4841 -16.4660  -2.0052   0.6413   3.8074   5.8369   9.3858  13.8060
    13.8358  14.0112

     occupation numbers 
     1.0000   1.0000   1.0000   1.0000   1.0000   1.0000   1.0000   1.0000
     1.0000   1.0000   1.0000   1.0000   1.0000   1.0000   0.0000   0.0000
     0.0000   0.0000

          k = 0.5608 0.0000 0.0000 (  1592 PWs)   bands (ev):

   -16.7855 -16.7855 -16.7419 -16.6622 -16.6579 -16.6172 -16.5819 -16.5375
   -16.4912 -16.4912  -2.2289   1.0849   5.1028   5.1028   8.3420   9.3505
    16.0349  16.0349

     occupation numbers 
     1.0000   1.0000   1.0000   1.0000   1.0000   1.0000   1.0000   1.0000
     1.0000   1.0000   1.0000   1.0000   1.0000   1.0000   0.0117   0.0000
     0.0000   0.0000

          k = 0.6168 0.0544-0.0544 (  1606 PWs)   bands (ev):

   -16.7913 -16.7874 -16.7273 -16.6742 -16.6456 -16.6055 -16.5943 -16.5528
   -16.4879 -16.4843  -1.7320   0.4431   4.7567   5.0165   8.5527   9.2758
    16.0574  16.3375

     occupation numbers 
     1.0000   1.0000   1.0000   1.0000   1.0000   1.0000   1.0000   1.0000
     1.0000   1.0000   1.0000   1.0000   1.0000   1.0000   0.0003   0.0000
     0.0000   0.0000

          k =-0.0561-0.5983 0.5983 (  1607 PWs)   bands (ev):

   -16.8002 -16.7890 -16.7108 -16.6743 -16.6339 -16.6072 -16.6042 -16.5696
   -16.4855 -16.4752  -1.2230  -0.1324   4.2315   5.0629   8.7270  10.0528
    15.7480  16.1001

     occupation numbers 
     1.0000   1.0000   1.0000   1.0000   1.0000   1.0000   1.0000   1.0000
     1.0000   1.0000   1.0000   1.0000   1.0000   1.0000   0.0000   0.0000
     0.0000   0.0000

          k = 0.0000-0.5439 0.5439 (  1604 PWs)   bands (ev):

   -16.8074 -16.7899 -16.7054 -16.6551 -16.6293 -16.6214 -16.6139 -16.5748
   -16.4844 -16.4682  -1.1462  -0.2179   3.8376   5.2387   8.8873  11.3605
    15.2457  15.4530

     occupation numbers 
     1.0000   1.0000   1.0000   1.0000   1.0000   1.0000   1.0000   1.0000
     1.0000   1.0000   1.0000   1.0000   1.0000   1.0000   0.0000   0.0000
     0.0000   0.0000

          k = 0.6729 0.0000 0.0000 (  1616 PWs)   bands (ev):

   -16.7884 -16.7884 -16.7200 -16.6929 -16.6325 -16.6067 -16.5880 -16.5608
   -16.4861 -16.4861  -1.2441  -0.1303   4.8996   4.8996   8.4170   8.7551
    17.1092  17.1092

     occupation numbers 
     1.0000   1.0000   1.0000   1.0000   1.0000   1.0000   1.0000   1.0000
     1.0000   1.0000   1.0000   1.0000   1.0000   1.0000   0.0036   0.0000
     0.0000   0.0000

          k = 0.0000-0.6527 0.6527 (  1608 PWs)   bands (ev):

   -16.7927 -16.7889 -16.7068 -16.6992 -16.6207 -16.6189 -16.5810 -16.5741
   -16.4853 -16.4819  -0.7446  -0.6479   4.6409   4.9155   8.5914   8.9782
    16.8791  16.9990

     occupation numbers 
     1.0000   1.0000   1.0000   1.0000   1.0000   1.0000   1.0000   1.0000
     1.0000   1.0000   1.0000   1.0000   1.0000   1.0000   0.0001   0.0000
     0.0000   0.0000

          k = 0.0000 0.1088 0.0000 (  1579 PWs)   bands (ev):

   -16.7696 -16.7644 -16.7618 -16.7243 -16.7173 -16.5497 -16.5304 -16.5234
   -16.5195 -16.5083  -4.5025   6.3967   7.5611   7.7405   9.2625  10.2911
    10.9244  11.1321

     occupation numbers 
     1.0000   1.0000   1.0000   1.0000   1.0000   1.0000   1.0000   1.0000
     1.0000   1.0000   1.0000   1.0000   1.0747   1.0155   0.0000   0.0000
     0.0000   0.0000

          k = 0.0561 0.1632-0.0544 (  1578 PWs)   bands (ev):

   -16.7746 -16.7686 -16.7622 -16.7177 -16.7068 -16.5611 -16.5352 -16.5247
   -16.5132 -16.5027  -4.3397   5.3254   7.2384   7.3938   9.5976  10.3432
    11.4781  11.7966

     occupation numbers 
     1.0000   1.0000   1.0000   1.0000   1.0000   1.0000   1.0000   1.0000
     1.0000   1.0000   1.0000   1.0000   1.0033   1.0230   0.0000   0.0000
     0.0000   0.0000

          k = 0.1122 0.2176-0.1088 (  1587 PWs)   bands (ev):

   -16.7813 -16.7743 -16.7582 -16.7083 -16.6958 -16.5707 -16.5442 -16.5281
   -16.5062 -16.4964  -4.0421   4.0134   6.8789   7.0348   9.4182  10.8089
    11.9724  12.7109

     occupation numbers 
     1.0000   1.0000   1.0000   1.0000   1.0000   1.0000   1.0000   1.0000
     1.0000   1.0000   1.0000   1.0000   1.0000   1.0001   0.0000   0.0000
     0.0000   0.0000

          k = 0.1682 0.2720-0.1632 (  1592 PWs)   bands (ev):

   -16.7868 -16.7792 -16.7525 -16.6995 -16.6871 -16.5770 -16.5522 -16.5344
   -16.5004 -16.4910  -3.6250   2.7342   6.5162   6.7592   9.1504  11.2098
    12.2208  13.6156

     occupation numbers 
     1.0000   1.0000   1.0000   1.0000   1.0000   1.0000   1.0000   1.0000
     1.0000   1.0000   1.0000   1.0000   1.0000   1.0000   0.0000   0.0000
     0.0000   0.0000

          k = 0.2243 0.3264-0.2176 (  1598 PWs)   bands (ev):

   -16.7902 -16.7826 -16.7465 -16.6924 -16.6827 -16.5788 -16.5587 -16.5415
   -16.4961 -16.4874  -3.1281   1.6053   6.2030   6.6023   8.9249  11.3853
    12.2242  14.5667

     occupation numbers 
     1.0000   1.0000   1.0000   1.0000   1.0000   1.0000   1.0000   1.0000
     1.0000   1.0000   1.0000   1.0000   1.0000   1.0000   0.0000   0.0000
     0.0000   0.0000

          k = 0.2804 0.3807-0.2720 (  1597 PWs)   bands (ev):

   -16.7918 -16.7847 -16.7417 -16.6873 -16.6824 -16.5764 -16.5635 -16.5478
   -16.4934 -16.4856  -2.6641   0.7715   5.9786   6.5594   8.7797  11.4599
    12.1104  15.1716

     occupation numbers 
     1.0000   1.0000   1.0000   1.0000   1.0000   1.0000   1.0000   1.0000
     1.0000   1.0000   1.0000   1.0000   1.0000   1.0000   0.0000   0.0000
     0.0000   0.0000

          k =-0.3925-0.2720 0.3807 (  1595 PWs)   bands (ev):

   -16.7919 -16.7855 -16.7394 -16.6861 -16.6832 -16.5733 -16.5645 -16.5522
   -16.4927 -16.4853  -2.5000   0.5144   5.8601   6.6252   8.7281  11.5528
    11.9853  15.2618

     occupation numbers 
     1.0000   1.0000   1.0000   1.0000   1.0000   1.0000   1.0000   1.0000
     1.0000   1.0000   1.0000   1.0000   1.0000   1.0000   0.0000   0.0000
     0.0000   0.0000

          k =-0.3365-0.2176 0.3264 (  1596 PWs)   bands (ev):

   -16.7909 -16.7846 -16.7406 -16.6906 -16.6825 -16.5736 -16.5594 -16.5527
   -16.4943 -16.4861  -2.7945   0.9958   5.8569   6.7915   8.7728  11.6877
    11.8774  15.1666

     occupation numbers 
     1.0000   1.0000   1.0000   1.0000   1.0000   1.0000   1.0000   1.0000
     1.0000   1.0000   1.0000   1.0000   1.0000   1.0000   0.0000   0.0000
     0.0000   0.0000

          k =-0.2804-0.1632 0.2720 (  1597 PWs)   bands (ev):

   -16.7889 -16.7817 -16.7448 -16.6965 -16.6850 -16.5725 -16.5561 -16.5458
   -16.4986 -16.4880  -3.2890   1.9511   5.9754   7.0445   8.9086  11.7162
    11.8180  14.4301

     occupation numbers 
     1.0000   1.0000   1.0000   1.0000   1.0000   1.0000   1.0000   1.0000
     1.0000   1.0000   1.0000   1.0000   1.0000   1.0001   0.0000   0.0000
     0.0000   0.0000

          k =-0.2243-0.1088 0.2176 (  1587 PWs)   bands (ev):

   -16.7854 -16.7767 -16.7508 -16.7039 -16.6918 -16.5676 -16.5522 -16.5362
   -16.5050 -16.4916  -3.7675   3.1446   6.2205   7.3597   9.1151  11.4389
    11.7200  13.4365

     occupation numbers 
     1.0000   1.0000   1.0000   1.0000   1.0000   1.0000   1.0000   1.0000
     1.0000   1.0000   1.0000   1.0000   1.0000   1.0161   0.0000   0.0000
     0.0000   0.0000

          k =-0.1682-0.0544 0.1632 (  1593 PWs)   bands (ev):

   -16.7800 -16.7703 -16.7570 -16.7125 -16.7021 -16.5593 -16.5459 -16.5279
   -16.5127 -16.4972  -4.1494   4.4468   6.6017   7.6868   9.3183  11.0072
    11.2665  12.5890

     occupation numbers 
     1.0000   1.0000   1.0000   1.0000   1.0000   1.0000   1.0000   1.0000
     1.0000   1.0000   1.0000   1.0000   1.0000   1.0644   0.0000   0.0000
     0.0000   0.0000

          k =-0.1122 0.0000 0.1088 (  1587 PWs)   bands (ev):

   -16.7736 -16.7639 -16.7612 -16.7207 -16.7133 -16.5489 -16.5380 -16.5273
   -16.5161 -16.5045  -4.4057   5.6896   7.1549   7.9195   9.2473  10.6343
    10.8329  11.7015

     occupation numbers 
     1.0000   1.0000   1.0000   1.0000   1.0000   1.0000   1.0000   1.0000
     1.0000   1.0000   1.0000   1.0000   1.0009   0.6256   0.0000   0.0000
     0.0000   0.0000

          k = 0.2243 0.1088 0.0000 (  1598 PWs)   bands (ev):

   -16.7783 -16.7694 -16.7583 -16.7131 -16.6985 -16.5659 -16.5408 -16.5223
   -16.5190 -16.4990  -4.1169   4.5487   6.4067   7.2414  10.0481  10.0601
    11.9755  12.5623

     occupation numbers 
     1.0000   1.0000   1.0000   1.0000   1.0000   1.0000   1.0000   1.0000
     1.0000   1.0000   1.0000   1.0000   1.0000   1.0035   0.0000   0.0000
     0.0000   0.0000

          k = 0.2804 0.1632-0.0544 (  1598 PWs)   bands (ev):

   -16.7848 -16.7758 -16.7505 -16.7046 -16.6876 -16.5760 -16.5486 -16.5327
   -16.5085 -16.4925  -3.7730   3.4271   5.8430   7.0181   9.8854  10.5920
    12.4121  12.9733

     occupation numbers 
     1.0000   1.0000   1.0000   1.0000   1.0000   1.0000   1.0000   1.0000
     1.0000   1.0000   1.0000   1.0000   1.0000   1.0001   0.0000   0.0000
     0.0000   0.0000

          k = 0.3365 0.2176-0.1088 (  1595 PWs)   bands (ev):

   -16.7909 -16.7810 -16.7413 -16.6962 -16.6794 -16.5820 -16.5548 -16.5458
   -16.5001 -16.4865  -3.3202   2.2703   5.4990   6.7194   9.6608  11.1485
    12.5274  13.3868

     occupation numbers 
     1.0000   1.0000   1.0000   1.0000   1.0000   1.0000   1.0000   1.0000
     1.0000   1.0000   1.0000   1.0000   1.0000   1.0000   0.0000   0.0000
     0.0000   0.0000

          k = 0.3925 0.2720-0.1632 (  1593 PWs)   bands (ev):

   -16.7957 -16.7842 -16.7336 -16.6885 -16.6759 -16.5825 -16.5597 -16.5587
   -16.4947 -16.4816  -2.8153   1.2581   5.3114   6.4583   9.4812  11.3956
    12.5082  14.1348

     occupation numbers 
     1.0000   1.0000   1.0000   1.0000   1.0000   1.0000   1.0000   1.0000
     1.0000   1.0000   1.0000   1.0000   1.0000   1.0000   0.0000   0.0000
     0.0000   0.0000

          k =-0.2804-0.3807 0.4895 (  1593 PWs)   bands (ev):

   -16.7985 -16.7859 -16.7298 -16.6817 -16.6769 -16.5779 -16.5723 -16.5602
   -16.4916 -16.4787  -2.4207   0.6014   5.2469   6.2932   9.3867  11.4022
    12.5049  15.0814

     occupation numbers 
     1.0000   1.0000   1.0000   1.0000   1.0000   1.0000   1.0000   1.0000
     1.0000   1.0000   1.0000   1.0000   1.0000   1.0000   0.0000   0.0000
     0.0000   0.0000

          k =-0.2243-0.3264 0.4351 (  1596 PWs)   bands (ev):

   -16.7989 -16.7864 -16.7312 -16.6818 -16.6753 -16.5823 -16.5710 -16.5574
   -16.4905 -16.4785  -2.4349   0.6151   5.2831   6.2583   9.3901  11.3736
    12.5318  15.3097

     occupation numbers 
     1.0000   1.0000   1.0000   1.0000   1.0000   1.0000   1.0000   1.0000
     1.0000   1.0000   1.0000   1.0000   1.0000   1.0000   0.0000   0.0000
     0.0000   0.0000

          k =-0.1682-0.2720 0.3807 (  1598 PWs)   bands (ev):

   -16.7967 -16.7860 -16.7372 -16.6871 -16.6734 -16.5882 -16.5651 -16.5490
   -16.4910 -16.4814  -2.8444   1.2833   5.4096   6.3679   9.4897  11.3489
    12.5784  14.3701

     occupation numbers 
     1.0000   1.0000   1.0000   1.0000   1.0000   1.0000   1.0000   1.0000
     1.0000   1.0000   1.0000   1.0000   1.0000   1.0000   0.0000   0.0000
     0.0000   0.0000

          k =-0.1122-0.2176 0.3264 (  1593 PWs)   bands (ev):

   -16.7920 -16.7842 -16.7457 -16.6937 -16.6765 -16.5884 -16.5593 -16.5378
   -16.4935 -16.4869  -3.3502   2.2861   5.6382   6.6061   9.6702  11.2009
    12.5883  13.4322

     occupation numbers 
     1.0000   1.0000   1.0000   1.0000   1.0000   1.0000   1.0000   1.0000
     1.0000   1.0000   1.0000   1.0000   1.0000   1.0000   0.0000   0.0000
     0.0000   0.0000

          k =-0.0561-0.1632 0.2720 (  1586 PWs)   bands (ev):

   -16.7853 -16.7809 -16.7544 -16.7015 -16.6846 -16.5829 -16.5520 -16.5272
   -16.4993 -16.4931  -3.7981   3.4153   6.0081   6.9174   9.8883  10.7566
    12.4583  12.8436

     occupation numbers 
     1.0000   1.0000   1.0000   1.0000   1.0000   1.0000   1.0000   1.0000
     1.0000   1.0000   1.0000   1.0000   1.0000   1.0000   0.0000   0.0000
     0.0000   0.0000

          k = 0.0000-0.1088 0.2176 (  1581 PWs)   bands (ev):

   -16.7778 -16.7761 -16.7606 -16.7103 -16.6957 -16.5732 -16.5434 -16.5207
   -16.5080 -16.4986  -4.1346   4.4979   6.5867   7.1850   9.9775  10.2888
    12.0391  12.3796

     occupation numbers 
     1.0000   1.0000   1.0000   1.0000   1.0000   1.0000   1.0000   1.0000
     1.0000   1.0000   1.0000   1.0000   1.0000   1.0014   0.0000   0.0000
     0.0000   0.0000

          k = 0.3365 0.1088 0.0000 (  1608 PWs)   bands (ev):

   -16.7821 -16.7766 -16.7550 -16.7000 -16.6763 -16.5940 -16.5445 -16.5277
   -16.5078 -16.4963  -3.6411   3.3649   5.7030   6.3729   9.4843  10.7105
    12.9021  13.3075

     occupation numbers 
     1.0000   1.0000   1.0000   1.0000   1.0000   1.0000   1.0000   1.0000
     1.0000   1.0000   1.0000   1.0000   1.0000   1.0000   0.0000   0.0000
     0.0000   0.0000

          k = 0.3925 0.1632-0.0544 (  1603 PWs)   bands (ev):

   -16.7899 -16.7821 -16.7429 -16.6906 -16.6663 -16.6033 -16.5540 -16.5410
   -16.4991 -16.4882  -3.2192   2.4044   5.1758   6.1442   9.7582  10.8642
    12.6859  13.7278

     occupation numbers 
     1.0000   1.0000   1.0000   1.0000   1.0000   1.0000   1.0000   1.0000
     1.0000   1.0000   1.0000   1.0000   1.0000   1.0000   0.0000   0.0000
     0.0000   0.0000

          k = 0.4486 0.2176-0.1088 (  1597 PWs)   bands (ev):

   -16.7977 -16.7855 -16.7302 -16.6813 -16.6613 -16.6061 -16.5643 -16.5551
   -16.4931 -16.4797  -2.7194   1.4469   4.8266   5.9158   9.7939  11.4251
    12.6326  13.8233

     occupation numbers 
     1.0000   1.0000   1.0000   1.0000   1.0000   1.0000   1.0000   1.0000
     1.0000   1.0000   1.0000   1.0000   1.0000   1.0000   0.0000   0.0000
     0.0000   0.0000

          k =-0.2243-0.4351 0.5439 (  1597 PWs)   bands (ev):

   -16.8033 -16.7878 -16.7206 -16.6732 -16.6623 -16.6017 -16.5766 -16.5643
   -16.4892 -16.4735  -2.2570   0.6998   4.6065   5.8005   9.7657  11.6501
    13.2213  13.9034

     occupation numbers 
     1.0000   1.0000   1.0000   1.0000   1.0000   1.0000   1.0000   1.0000
     1.0000   1.0000   1.0000   1.0000   1.0000   1.0000   0.0000   0.0000
     0.0000   0.0000

          k =-0.1682-0.3807 0.4895 (  1596 PWs)   bands (ev):

   -16.8056 -16.7893 -16.7170 -16.6729 -16.6621 -16.5957 -16.5832 -16.5684
   -16.4868 -16.4711  -2.1193   0.4892   4.4987   5.8391   9.8081  11.6156
    13.4235  14.7626

     occupation numbers 
     1.0000   1.0000   1.0000   1.0000   1.0000   1.0000   1.0000   1.0000
     1.0000   1.0000   1.0000   1.0000   1.0000   1.0000   0.0000   0.0000
     0.0000   0.0000

          k =-0.1122-0.3264 0.4351 (  1599 PWs)   bands (ev):

   -16.8044 -16.7898 -16.7210 -16.6803 -16.6598 -16.5993 -16.5728 -16.5668
   -16.4859 -16.4730  -2.4507   0.9608   4.5229   6.0265   9.9337  11.5918
    13.2416  14.3548

     occupation numbers 
     1.0000   1.0000   1.0000   1.0000   1.0000   1.0000   1.0000   1.0000
     1.0000   1.0000   1.0000   1.0000   1.0000   1.0000   0.0000   0.0000
     0.0000   0.0000

          k =-0.0561-0.2720 0.3807 (  1591 PWs)   bands (ev):

   -16.7996 -16.7890 -16.7314 -16.6875 -16.6633 -16.5992 -16.5665 -16.5529
   -16.4867 -16.4792  -2.9550   1.7808   4.7300   6.3273  10.1063  11.4790
    12.8142  13.6107

     occupation numbers 
     1.0000   1.0000   1.0000   1.0000   1.0000   1.0000   1.0000   1.0000
     1.0000   1.0000   1.0000   1.0000   1.0000   1.0000   0.0000   0.0000
     0.0000   0.0000

          k =-0.0000-0.2176 0.3264 (  1586 PWs)   bands (ev):

   -16.7923 -16.7864 -16.7440 -16.6943 -16.6727 -16.5930 -16.5601 -16.5374
   -16.4892 -16.4887  -3.4274   2.6569   5.2032   6.6705  10.2006  11.0196
    12.6758  13.0461

     occupation numbers 
     1.0000   1.0000   1.0000   1.0000   1.0000   1.0000   1.0000   1.0000
     1.0000   1.0000   1.0000   1.0000   1.0000   1.0000   0.0000   0.0000
     0.0000   0.0000

          k = 0.4486 0.1088 0.0000 (  1610 PWs)   bands (ev):

   -16.7862 -16.7837 -16.7471 -16.6812 -16.6500 -16.6249 -16.5607 -16.5332
   -16.4965 -16.4923  -2.9876   2.1766   5.1548   5.6267   9.0745  10.3886
    13.5835  14.6872

     occupation numbers 
     1.0000   1.0000   1.0000   1.0000   1.0000   1.0000   1.0000   1.0000
     1.0000   1.0000   1.0000   1.0000   1.0000   1.0000   0.0000   0.0000
     0.0000   0.0000

          k = 0.5047 0.1632-0.0544 (  1606 PWs)   bands (ev):

   -16.7951 -16.7876 -16.7312 -16.6706 -16.6422 -16.6319 -16.5723 -16.5499
   -16.4902 -16.4823  -2.5038   1.3797   4.6662   5.4199   9.4104  10.6366
    13.2856  15.0228

     occupation numbers 
     1.0000   1.0000   1.0000   1.0000   1.0000   1.0000   1.0000   1.0000
     1.0000   1.0000   1.0000   1.0000   1.0000   1.0000   0.0000   0.0000
     0.0000   0.0000

          k =-0.1682-0.4895 0.5983 (  1601 PWs)   bands (ev):

   -16.8035 -16.7899 -16.7162 -16.6608 -16.6427 -16.6292 -16.5850 -16.5650
   -16.4864 -16.4729  -2.0024   0.6554   4.2621   5.3277   9.5251  11.5931
    13.0123  14.9302

     occupation numbers 
     1.0000   1.0000   1.0000   1.0000   1.0000   1.0000   1.0000   1.0000
     1.0000   1.0000   1.0000   1.0000   1.0000   1.0000   0.0000   0.0000
     0.0000   0.0000

          k =-0.1122-0.4351 0.5439 (  1599 PWs)   bands (ev):

   -16.8086 -16.7915 -16.7073 -16.6568 -16.6450 -16.6212 -16.5957 -16.5733
   -16.4839 -16.4675  -1.7291   0.2900   3.9959   5.3992   9.6326  12.5629
    13.1651  14.5793

     occupation numbers 
     1.0000   1.0000   1.0000   1.0000   1.0000   1.0000   1.0000   1.0000
     1.0000   1.0000   1.0000   1.0000   1.0000   1.0000   0.0000   0.0000
     0.0000   0.0000

          k =-0.0561-0.3807 0.4895 (  1600 PWs)   bands (ev):

   -16.8096 -16.7922 -16.7072 -16.6673 -16.6447 -16.6131 -16.5928 -16.5747
   -16.4829 -16.4668  -1.9726   0.5702   3.9322   5.6197   9.8234  12.5432
    13.7343  14.3984

     occupation numbers 
     1.0000   1.0000   1.0000   1.0000   1.0000   1.0000   1.0000   1.0000
     1.0000   1.0000   1.0000   1.0000   1.0000   1.0000   0.0000   0.0000
     0.0000   0.0000

          k = 0.0000-0.3264 0.4351 (  1596 PWs)   bands (ev):

   -16.8063 -16.7916 -16.7162 -16.6795 -16.6510 -16.6082 -16.5739 -16.5715
   -16.4837 -16.4711  -2.4681   1.1790   4.1516   5.9523  10.0534  12.2263
    12.8973  14.3058

     occupation numbers 
     1.0000   1.0000   1.0000   1.0000   1.0000   1.0000   1.0000   1.0000
     1.0000   1.0000   1.0000   1.0000   1.0000   1.0000   0.0000   0.0000
     0.0000   0.0000

          k = 0.5608 0.1088-0.0000 (  1606 PWs)   bands (ev):

   -16.7901 -16.7892 -16.7324 -16.6583 -16.6561 -16.6219 -16.5826 -16.5473
   -16.4875 -16.4865  -2.1711   0.9975   4.8025   5.0786   8.8727   9.7173
    14.7263  16.0078

     occupation numbers 
     1.0000   1.0000   1.0000   1.0000   1.0000   1.0000   1.0000   1.0000
     1.0000   1.0000   1.0000   1.0000   1.0000   1.0000   0.0000   0.0000
     0.0000   0.0000

          k =-0.1122-0.5439 0.6527 (  1606 PWs)   bands (ev):

   -16.7990 -16.7915 -16.7143 -16.6612 -16.6468 -16.6158 -16.5956 -16.5655
   -16.4840 -16.4768  -1.6532   0.3502   4.3443   4.9597   9.1981  10.2178
    14.4252  16.0856

     occupation numbers 
     1.0000   1.0000   1.0000   1.0000   1.0000   1.0000   1.0000   1.0000
     1.0000   1.0000   1.0000   1.0000   1.0000   1.0000   0.0000   0.0000
     0.0000   0.0000

          k =-0.0561-0.4895 0.5983 (  1600 PWs)   bands (ev):

   -16.8067 -16.7927 -16.7021 -16.6532 -16.6376 -16.6218 -16.6076 -16.5770
   -16.4822 -16.4689  -1.2758  -0.0811   3.9239   5.0385   9.3392  11.4254
    14.1482  15.2718

     occupation numbers 
     1.0000   1.0000   1.0000   1.0000   1.0000   1.0000   1.0000   1.0000
     1.0000   1.0000   1.0000   1.0000   1.0000   1.0000   0.0000   0.0000
     0.0000   0.0000

          k = 0.0000-0.4351 0.5439 (  1597 PWs)   bands (ev):

   -16.8105 -16.7930 -16.7009 -16.6474 -16.6326 -16.6314 -16.6092 -16.5780
   -16.4817 -16.4653  -1.4800   0.1120   3.7452   5.2702   9.5516  12.8893
    13.8730  14.0025

     occupation numbers 
     1.0000   1.0000   1.0000   1.0000   1.0000   1.0000   1.0000   1.0000
     1.0000   1.0000   1.0000   1.0000   1.0000   1.0000   0.0000   0.0000
     0.0000   0.0000

          k =-0.0561-0.5983 0.7071 (  1612 PWs)   bands (ev):

   -16.7925 -16.7923 -16.7116 -16.6856 -16.6331 -16.6073 -16.5941 -16.5685
   -16.4825 -16.4824  -1.2136  -0.1451   4.6657   4.7562   8.9065   9.1907
    15.9623  16.7529

     occupation numbers 
     1.0000   1.0000   1.0000   1.0000   1.0000   1.0000   1.0000   1.0000
     1.0000   1.0000   1.0000   1.0000   1.0000   1.0000   0.0000   0.0000
     0.0000   0.0000

          k = 0.0000-0.5439 0.6527 (  1608 PWs)   bands (ev):

   -16.8004 -16.7929 -16.6991 -16.6803 -16.6238 -16.6185 -16.5976 -16.5804
   -16.4817 -16.4747  -0.8322  -0.5303   4.2332   4.8043   9.1314  10.0516
    15.6337  15.6702

     occupation numbers 
     1.0000   1.0000   1.0000   1.0000   1.0000   1.0000   1.0000   1.0000
     1.0000   1.0000   1.0000   1.0000   1.0000   1.0000   0.0000   0.0000
     0.0000   0.0000

          k = 0.0000 0.2176 0.0000 (  1575 PWs)   bands (ev):

   -16.7753 -16.7698 -16.7680 -16.7148 -16.6952 -16.5764 -16.5316 -16.5210
   -16.5112 -16.5020  -4.2244   4.9631   6.8621   6.9869   9.7159  10.4109
    11.9565  12.2686

     occupation numbers 
     1.0000   1.0000   1.0000   1.0000   1.0000   1.0000   1.0000   1.0000
     1.0000   1.0000   1.0000   1.0000   1.0000   1.0000   0.0000   0.0000
     0.0000   0.0000

          k = 0.0561 0.2720-0.0544 (  1590 PWs)   bands (ev):

   -16.7817 -16.7746 -16.7648 -16.7069 -16.6826 -16.5898 -16.5402 -16.5176
   -16.5078 -16.4969  -3.9721   4.0468   6.4706   6.6153   9.7105  10.5851
    12.5146  12.8267

     occupation numbers 
     1.0000   1.0000   1.0000   1.0000   1.0000   1.0000   1.0000   1.0000
     1.0000   1.0000   1.0000   1.0000   1.0000   1.0000   0.0000   0.0000
     0.0000   0.0000

          k = 0.1122 0.3264-0.1088 (  1592 PWs)   bands (ev):

   -16.7892 -16.7800 -16.7563 -16.6976 -16.6721 -16.5993 -16.5501 -16.5246
   -16.5013 -16.4889  -3.5935   2.9456   5.9766   6.3504   9.8030  10.8647
    12.7527  13.0726

     occupation numbers 
     1.0000   1.0000   1.0000   1.0000   1.0000   1.0000   1.0000   1.0000
     1.0000   1.0000   1.0000   1.0000   1.0000   1.0000   0.0000   0.0000
     0.0000   0.0000

          k = 0.1682 0.3807-0.1632 (  1600 PWs)   bands (ev):

   -16.7951 -16.7845 -16.7463 -16.6887 -16.6664 -16.6032 -16.5596 -16.5354
   -16.4949 -16.4824  -3.1163   1.8675   5.5121   6.2110   9.6820  11.3129
    13.0056  13.2044

     occupation numbers 
     1.0000   1.0000   1.0000   1.0000   1.0000   1.0000   1.0000   1.0000
     1.0000   1.0000   1.0000   1.0000   1.0000   1.0000   0.0000   0.0000
     0.0000   0.0000

          k = 0.2243 0.4351-0.2176 (  1599 PWs)   bands (ev):

   -16.7987 -16.7880 -16.7367 -16.6810 -16.6667 -16.6003 -16.5682 -16.5462
   -16.4897 -16.4785  -2.6176   0.9696   5.1499   6.1933   9.5586  11.5005
    12.9041  14.0775

     occupation numbers 
     1.0000   1.0000   1.0000   1.0000   1.0000   1.0000   1.0000   1.0000
     1.0000   1.0000   1.0000   1.0000   1.0000   1.0000   0.0000   0.0000
     0.0000   0.0000

          k =-0.4486-0.2176 0.4351 (  1592 PWs)   bands (ev):

   -16.7995 -16.7906 -16.7298 -16.6757 -16.6714 -16.5923 -16.5751 -16.5547
   -16.4861 -16.4776  -2.3123   0.5033   4.9146   6.2945   9.5099  11.5929
    12.6908  15.1848

     occupation numbers 
     1.0000   1.0000   1.0000   1.0000   1.0000   1.0000   1.0000   1.0000
     1.0000   1.0000   1.0000   1.0000   1.0000   1.0000   0.0000   0.0000
     0.0000   0.0000

          k =-0.3925-0.1632 0.3807 (  1594 PWs)   bands (ev):

   -16.7976 -16.7918 -16.7275 -16.6820 -16.6705 -16.5865 -16.5734 -16.5594
   -16.4849 -16.4799  -2.4723   0.7523   4.8215   6.5050   9.5469  11.7315
    12.4645  15.2480

     occupation numbers 
     1.0000   1.0000   1.0000   1.0000   1.0000   1.0000   1.0000   1.0000
     1.0000   1.0000   1.0000   1.0000   1.0000   1.0000   0.0000   0.0000
     0.0000   0.0000

          k =-0.3365-0.1088 0.3264 (  1594 PWs)   bands (ev):

   -16.7937 -16.7908 -16.7310 -16.6912 -16.6717 -16.5855 -16.5624 -16.5579
   -16.4886 -16.4828  -2.9369   1.5457   4.8901   6.8056   9.6556  11.8938
    12.2065  14.1638

     occupation numbers 
     1.0000   1.0000   1.0000   1.0000   1.0000   1.0000   1.0000   1.0000
     1.0000   1.0000   1.0000   1.0000   1.0000   1.0000   0.0000   0.0000
     0.0000   0.0000

          k =-0.2804-0.0544 0.2720 (  1591 PWs)   bands (ev):

   -16.7904 -16.7849 -16.7394 -16.6994 -16.6786 -16.5805 -16.5588 -16.5433
   -16.4977 -16.4857  -3.4336   2.5674   5.1578   7.1596   9.7874  11.7109
    11.9932  13.2776

     occupation numbers 
     1.0000   1.0000   1.0000   1.0000   1.0000   1.0000   1.0000   1.0000
     1.0000   1.0000   1.0000   1.0000   1.0000   1.0009   0.0000   0.0000
     0.0000   0.0000

          k =-0.2243 0.0000 0.2176 (  1590 PWs)   bands (ev):

   -16.7859 -16.7767 -16.7496 -16.7066 -16.6897 -16.5711 -16.5533 -16.5295
   -16.5091 -16.4904  -3.8507   3.5985   5.7046   7.4959   9.7736  11.2400
    11.5520  13.0044

     occupation numbers 
     1.0000   1.0000   1.0000   1.0000   1.0000   1.0000   1.0000   1.0000
     1.0000   1.0000   1.0000   1.0000   1.0000   1.0538   0.0000   0.0000
     0.0000   0.0000

          k = 0.1122 0.2176 0.0000 (  1590 PWs)   bands (ev):

   -16.7809 -16.7704 -16.7614 -16.7124 -16.6948 -16.5740 -16.5384 -16.5184
   -16.5178 -16.4961  -4.1304   4.4909   6.4508   7.3292  10.0413  10.2983
    11.7349  12.5797

     occupation numbers 
     1.0000   1.0000   1.0000   1.0000   1.0000   1.0000   1.0000   1.0000
     1.0000   1.0000   1.0000   1.0000   1.0000   1.0113   0.0000   0.0000
     0.0000   0.0000

          k = 0.1682 0.2720-0.0544 (  1589 PWs)   bands (ev):

   -16.7870 -16.7777 -16.7538 -16.7042 -16.6831 -16.5846 -16.5466 -16.5280
   -16.5066 -16.4897  -3.7904   3.3941   5.8696   7.0663   9.9740  10.8008
    12.2205  12.9233

     occupation numbers 
     1.0000   1.0000   1.0000   1.0000   1.0000   1.0000   1.0000   1.0000
     1.0000   1.0000   1.0000   1.0000   1.0000   1.0002   0.0000   0.0000
     0.0000   0.0000

          k = 0.2243 0.3264-0.1088 (  1592 PWs)   bands (ev):

   -16.7915 -16.7844 -16.7448 -16.6959 -16.6747 -16.5909 -16.5540 -16.5395
   -16.4969 -16.4851  -3.3404   2.2578   5.4891   6.7614   9.7741  11.2627
    12.5044  13.4014

     occupation numbers 
     1.0000   1.0000   1.0000   1.0000   1.0000   1.0000   1.0000   1.0000
     1.0000   1.0000   1.0000   1.0000   1.0000   1.0000   0.0000   0.0000
     0.0000   0.0000

          k = 0.2804 0.3807-0.1632 (  1592 PWs)   bands (ev):

   -16.7940 -16.7895 -16.7370 -16.6883 -16.6713 -16.5919 -16.5613 -16.5494
   -16.4895 -16.4826  -2.8354   1.2550   5.2586   6.5185   9.6106  11.4216
    12.5112  14.3611

     occupation numbers 
     1.0000   1.0000   1.0000   1.0000   1.0000   1.0000   1.0000   1.0000
     1.0000   1.0000   1.0000   1.0000   1.0000   1.0000   0.0000   0.0000
     0.0000   0.0000

          k =-0.3925-0.2720 0.4895 (  1590 PWs)   bands (ev):

   -16.7947 -16.7926 -16.7325 -16.6822 -16.6723 -16.5891 -16.5687 -16.5540
   -16.4847 -16.4825  -2.4336   0.5948   5.1498   6.3865   9.5230  11.4378
    12.4706  15.3108

     occupation numbers 
     1.0000   1.0000   1.0000   1.0000   1.0000   1.0000   1.0000   1.0000
     1.0000   1.0000   1.0000   1.0000   1.0000   1.0000   0.0000   0.0000
     0.0000   0.0000

          k = 0.3365 0.2176 0.0000 (  1595 PWs)   bands (ev):

   -16.7893 -16.7847 -16.7388 -16.6974 -16.6756 -16.5867 -16.5565 -16.5442
   -16.4980 -16.4872  -3.3928   2.6466   5.0240   6.8310  10.2856  10.7328
    12.7556  13.0298

     occupation numbers 
     1.0000   1.0000   1.0000   1.0000   1.0000   1.0000   1.0000   1.0000
     1.0000   1.0000   1.0000   1.0000   1.0000   1.0000   0.0000   0.0000
     0.0000   0.0000

          k = 0.3925 0.2720-0.0544 (  1595 PWs)   bands (ev):

   -16.7951 -16.7907 -16.7269 -16.6888 -16.6661 -16.5937 -16.5652 -16.5588
   -16.4882 -16.4821  -2.9159   1.7449   4.5626   6.5112  10.1904  11.2786
    12.7457  13.5985

     occupation numbers 
     1.0000   1.0000   1.0000   1.0000   1.0000   1.0000   1.0000   1.0000
     1.0000   1.0000   1.0000   1.0000   1.0000   1.0000   0.0000   0.0000
     0.0000   0.0000

          k =-0.2804-0.3807 0.5983 (  1593 PWs)   bands (ev):

   -16.8012 -16.7922 -16.7196 -16.6780 -16.6623 -16.5945 -16.5813 -16.5634
   -16.4844 -16.4760  -2.4182   0.9159   4.3834   6.2009  10.0378  11.4593
    13.1970  14.1770

     occupation numbers 
     1.0000   1.0000   1.0000   1.0000   1.0000   1.0000   1.0000   1.0000
     1.0000   1.0000   1.0000   1.0000   1.0000   1.0000   0.0000   0.0000
     0.0000   0.0000

          k =-0.2243-0.3264 0.5439 (  1596 PWs)   bands (ev):

   -16.8044 -16.7922 -16.7194 -16.6686 -16.6631 -16.5987 -16.5869 -16.5626
   -16.4840 -16.4724  -2.1175   0.4647   4.4067   5.9754   9.9339  11.4620
    13.4990  14.9150

     occupation numbers 
     1.0000   1.0000   1.0000   1.0000   1.0000   1.0000   1.0000   1.0000
     1.0000   1.0000   1.0000   1.0000   1.0000   1.0000   0.0000   0.0000
     0.0000   0.0000

          k =-0.1682-0.2720 0.4895 (  1594 PWs)   bands (ev):

   -16.8040 -16.7911 -16.7256 -16.6725 -16.6575 -16.6095 -16.5780 -16.5562
   -16.4853 -16.4729  -2.2943   0.7027   4.5877   5.8765   9.9042  11.4907
    13.4233  14.1372

     occupation numbers 
     1.0000   1.0000   1.0000   1.0000   1.0000   1.0000   1.0000   1.0000
     1.0000   1.0000   1.0000   1.0000   1.0000   1.0000   0.0000   0.0000
     0.0000   0.0000

          k =-0.1122-0.2176 0.4351 (  1598 PWs)   bands (ev):

   -16.8001 -16.7892 -16.7365 -16.6803 -16.6553 -16.6146 -16.5683 -16.5446
   -16.4880 -16.4775  -2.7695   1.4430   4.9002   5.9275   9.9465  11.4122
    12.6885  13.9585

     occupation numbers 
     1.0000   1.0000   1.0000   1.0000   1.0000   1.0000   1.0000   1.0000
     1.0000   1.0000   1.0000   1.0000   1.0000   1.0000   0.0000   0.0000
     0.0000   0.0000

          k =-0.0561-0.1632 0.3807 (  1598 PWs)   bands (ev):

   -16.7933 -16.7863 -16.7490 -16.6890 -16.6599 -16.6122 -16.5587 -16.5311
   -16.4919 -16.4856  -3.2666   2.3662   5.3333   6.1226   9.9763  10.9135
    12.5140  13.8439

     occupation numbers 
     1.0000   1.0000   1.0000   1.0000   1.0000   1.0000   1.0000   1.0000
     1.0000   1.0000   1.0000   1.0000   1.0000   1.0000   0.0000   0.0000
     0.0000   0.0000

          k = 0.0000-0.1088 0.3264 (  1591 PWs)   bands (ev):

   -16.7854 -16.7821 -16.7597 -16.6983 -16.6701 -16.6031 -16.5489 -16.5206
   -16.4969 -16.4951  -3.6795   3.2842   5.8964   6.3779   9.7531  10.6612
    12.6757  13.4292

     occupation numbers 
     1.0000   1.0000   1.0000   1.0000   1.0000   1.0000   1.0000   1.0000
     1.0000   1.0000   1.0000   1.0000   1.0000   1.0000   0.0000   0.0000
     0.0000   0.0000

          k = 0.4486 0.2176 0.0000 (  1601 PWs)   bands (ev):

   -16.7928 -16.7922 -16.7280 -16.6814 -16.6549 -16.6134 -16.5640 -16.5568
   -16.4872 -16.4839  -2.7706   1.6991   4.5259   5.9118  10.3350  10.8553
    12.3337  14.5624

     occupation numbers 
     1.0000   1.0000   1.0000   1.0000   1.0000   1.0000   1.0000   1.0000
     1.0000   1.0000   1.0000   1.0000   1.0000   1.0000   0.0000   0.0000
     0.0000   0.0000

          k =-0.2243-0.4351 0.6527 (  1598 PWs)   bands (ev):

   -16.8012 -16.7944 -16.7143 -16.6710 -16.6477 -16.6180 -16.5809 -16.5669
   -16.4822 -16.4758  -2.2638   0.9534   4.1647   5.6188  10.5504  11.3345
    12.3023  14.9420

     occupation numbers 
     1.0000   1.0000   1.0000   1.0000   1.0000   1.0000   1.0000   1.0000
     1.0000   1.0000   1.0000   1.0000   1.0000   1.0000   0.0000   0.0000
     0.0000   0.0000

          k =-0.1682-0.3807 0.5983 (  1601 PWs)   bands (ev):

   -16.8067 -16.7953 -16.7070 -16.6621 -16.6463 -16.6173 -16.5948 -16.5716
   -16.4806 -16.4695  -1.8544   0.3944   4.0402   5.4141  10.5690  11.4194
    13.2675  14.6935

     occupation numbers 
     1.0000   1.0000   1.0000   1.0000   1.0000   1.0000   1.0000   1.0000
     1.0000   1.0000   1.0000   1.0000   1.0000   1.0000   0.0000   0.0000
     0.0000   0.0000

          k =-0.1122-0.3264 0.5439 (  1597 PWs)   bands (ev):

   -16.8081 -16.7952 -16.7089 -16.6635 -16.6439 -16.6210 -16.5915 -16.5705
   -16.4805 -16.4680  -1.8818   0.4082   4.0941   5.3742  10.6181  11.3834
    13.5636  14.5178

     occupation numbers 
     1.0000   1.0000   1.0000   1.0000   1.0000   1.0000   1.0000   1.0000
     1.0000   1.0000   1.0000   1.0000   1.0000   1.0000   0.0000   0.0000
     0.0000   0.0000

          k =-0.0561-0.2720 0.4895 (  1601 PWs)   bands (ev):

   -16.8053 -16.7942 -16.7196 -16.6715 -16.6426 -16.6252 -16.5791 -16.5615
   -16.4817 -16.4715  -2.3180   0.9650   4.3086   5.5223  10.6879  11.3406
    12.4327  14.9694

     occupation numbers 
     1.0000   1.0000   1.0000   1.0000   1.0000   1.0000   1.0000   1.0000
     1.0000   1.0000   1.0000   1.0000   1.0000   1.0000   0.0000   0.0000
     0.0000   0.0000

          k = 0.0000-0.2176 0.4351 (  1598 PWs)   bands (ev):

   -16.7994 -16.7917 -16.7349 -16.6802 -16.6488 -16.6218 -16.5683 -16.5458
   -16.4847 -16.4788  -2.8266   1.6837   4.7129   5.8164  10.6324  10.8686
    12.2197  14.6276

     occupation numbers 
     1.0000   1.0000   1.0000   1.0000   1.0000   1.0000   1.0000   1.0000
     1.0000   1.0000   1.0000   1.0000   1.0000   1.0000   0.0000   0.0000
     0.0000   0.0000

          k =-0.1682-0.4895 0.7071 (  1611 PWs)   bands (ev):

   -16.7976 -16.7966 -16.7134 -16.6599 -16.6418 -16.6309 -16.5860 -16.5666
   -16.4795 -16.4791  -2.0068   0.7513   4.2579   5.0998  10.1117  10.6660
    12.9434  15.8336

     occupation numbers 
     1.0000   1.0000   1.0000   1.0000   1.0000   1.0000   1.0000   1.0000
     1.0000   1.0000   1.0000   1.0000   1.0000   1.0000   0.0000   0.0000
     0.0000   0.0000

          k =-0.1122-0.4351 0.6527 (  1602 PWs)   bands (ev):

   -16.8051 -16.7980 -16.6981 -16.6511 -16.6432 -16.6259 -16.6016 -16.5789
   -16.4776 -16.4707  -1.5248   0.1793   3.9982   4.8771  10.4190  11.5865
    12.6456  15.1101

     occupation numbers 
     1.0000   1.0000   1.0000   1.0000   1.0000   1.0000   1.0000   1.0000
     1.0000   1.0000   1.0000   1.0000   1.0000   1.0000   0.0000   0.0000
     0.0000   0.0000

          k =-0.0561-0.3807 0.5983 (  1598 PWs)   bands (ev):

   -16.8093 -16.7981 -16.6939 -16.6506 -16.6385 -16.6268 -16.6071 -16.5821
   -16.4772 -16.4664  -1.4040   0.0235   3.8829   4.8885  10.5942  12.3082
    13.1039  13.6663

     occupation numbers 
     1.0000   1.0000   1.0000   1.0000   1.0000   1.0000   1.0000   1.0000
     1.0000   1.0000   1.0000   1.0000   1.0000   1.0000   0.0000   0.0000
     0.0000   0.0000

          k = 0.0000-0.3264 0.5439 (  1605 PWs)   bands (ev):

   -16.8091 -16.7970 -16.7028 -16.6610 -16.6345 -16.6307 -16.5946 -16.5758
   -16.4784 -16.4669  -1.8073   0.4348   3.9648   5.1290  10.8208  12.0100
    12.4895  14.6132

     occupation numbers 
     1.0000   1.0000   1.0000   1.0000   1.0000   1.0000   1.0000   1.0000
     1.0000   1.0000   1.0000   1.0000   1.0000   1.0000   0.0000   0.0000
     0.0000   0.0000

          k =-0.0561-0.4895 0.7071 (  1605 PWs)   bands (ev):

   -16.8000 -16.7995 -16.6935 -16.6691 -16.6356 -16.6104 -16.6064 -16.5840
   -16.4758 -16.4752  -1.1355  -0.2014   4.2516   4.5310  10.0939  10.2920
    14.1050  15.3791

     occupation numbers 
     1.0000   1.0000   1.0000   1.0000   1.0000   1.0000   1.0000   1.0000
     1.0000   1.0000   1.0000   1.0000   1.0000   1.0000   0.0000   0.0000
     0.0000   0.0000

          k =-0.0000-0.4351 0.6527 (  1605 PWs)   bands (ev):

   -16.8064 -16.7995 -16.6850 -16.6611 -16.6325 -16.6200 -16.6102 -16.5903
   -16.4756 -16.4690  -0.9383  -0.4087   3.9997   4.5515  10.3492  11.5105
    13.8000  13.8693

     occupation numbers 
     1.0000   1.0000   1.0000   1.0000   1.0000   1.0000   1.0000   1.0000
     1.0000   1.0000   1.0000   1.0000   1.0000   1.0000   0.0000   0.0000
     0.0000   0.0000

          k = 0.0000 0.3264 0.0000 (  1594 PWs)   bands (ev):

   -16.7826 -16.7763 -16.7697 -16.7001 -16.6679 -16.6073 -16.5452 -16.5083
   -16.5031 -16.5002  -3.7645   3.5629   6.1923   6.2777   9.1785  10.7076
    13.1704  13.5942

     occupation numbers 
     1.0000   1.0000   1.0000   1.0000   1.0000   1.0000   1.0000   1.0000
     1.0000   1.0000   1.0000   1.0000   1.0000   1.0000   0.0000   0.0000
     0.0000   0.0000

          k = 0.0561 0.3807-0.0544 (  1594 PWs)   bands (ev):

   -16.7887 -16.7821 -16.7621 -16.6906 -16.6545 -16.6213 -16.5546 -16.5145
   -16.4989 -16.4906  -3.4268   2.7631   5.7702   5.9786   9.2445  10.6051
    13.4050  13.9938

     occupation numbers 
     1.0000   1.0000   1.0000   1.0000   1.0000   1.0000   1.0000   1.0000
     1.0000   1.0000   1.0000   1.0000   1.0000   1.0000   0.0000   0.0000
     0.0000   0.0000

          k = 0.1122 0.4351-0.1088 (  1599 PWs)   bands (ev):

   -16.7965 -16.7870 -16.7493 -16.6806 -16.6459 -16.6291 -16.5652 -16.5286
   -16.4918 -16.4811  -2.9777   1.8698   5.1709   5.8239   9.4537  10.9809
    13.1833  14.1396

     occupation numbers 
     1.0000   1.0000   1.0000   1.0000   1.0000   1.0000   1.0000   1.0000
     1.0000   1.0000   1.0000   1.0000   1.0000   1.0000   0.0000   0.0000
     0.0000   0.0000

          k = 0.1682 0.4895-0.1632 (  1597 PWs)   bands (ev):

   -16.8028 -16.7908 -16.7357 -16.6710 -16.6454 -16.6277 -16.5760 -16.5434
   -16.4861 -16.4739  -2.4688   1.0312   4.6308   5.7984   9.4862  11.8901
    13.0643  14.0160

     occupation numbers 
     1.0000   1.0000   1.0000   1.0000   1.0000   1.0000   1.0000   1.0000
     1.0000   1.0000   1.0000   1.0000   1.0000   1.0000   0.0000   0.0000
     0.0000   0.0000

          k =-0.5047-0.1632 0.4895 (  1594 PWs)   bands (ev):

   -16.8062 -16.7936 -16.7247 -16.6630 -16.6502 -16.6205 -16.5859 -16.5552
   -16.4820 -16.4703  -2.0583   0.4559   4.2425   5.8992   9.5307  12.4425
    13.6519  13.8135

     occupation numbers 
     1.0000   1.0000   1.0000   1.0000   1.0000   1.0000   1.0000   1.0000
     1.0000   1.0000   1.0000   1.0000   1.0000   1.0000   0.0000   0.0000
     0.0000   0.0000

          k =-0.4486-0.1088 0.4351 (  1592 PWs)   bands (ev):

   -16.8060 -16.7953 -16.7189 -16.6636 -16.6556 -16.6083 -16.5917 -16.5615
   -16.4798 -16.4710  -2.0704   0.4865   4.0447   6.1174   9.6568  12.5104
    13.4153  14.9129

     occupation numbers 
     1.0000   1.0000   1.0000   1.0000   1.0000   1.0000   1.0000   1.0000
     1.0000   1.0000   1.0000   1.0000   1.0000   1.0000   0.0000   0.0000
     0.0000   0.0000

          k =-0.3925-0.0544 0.3807 (  1594 PWs)   bands (ev):

   -16.8019 -16.7956 -16.7193 -16.6782 -16.6573 -16.5995 -16.5831 -16.5625
   -16.4796 -16.4763  -2.4871   1.0860   4.0795   6.4332   9.8426  12.5720
    13.0171  13.9909

     occupation numbers 
     1.0000   1.0000   1.0000   1.0000   1.0000   1.0000   1.0000   1.0000
     1.0000   1.0000   1.0000   1.0000   1.0000   1.0000   0.0000   0.0000
     0.0000   0.0000

          k =-0.3365 0.0000 0.3264 (  1600 PWs)   bands (ev):

   -16.7944 -16.7939 -16.7267 -16.6913 -16.6659 -16.5919 -16.5669 -16.5573
   -16.4859 -16.4815  -2.9904   1.8624   4.4232   6.8066   9.9814  12.2532
    12.7036  13.0714

     occupation numbers 
     1.0000   1.0000   1.0000   1.0000   1.0000   1.0000   1.0000   1.0000
     1.0000   1.0000   1.0000   1.0000   1.0000   1.0000   0.0000   0.0000
     0.0000   0.0000

          k = 0.1122 0.3264 0.0000 (  1591 PWs)   bands (ev):

   -16.7876 -16.7791 -16.7599 -16.6993 -16.6693 -16.6040 -16.5473 -16.5185
   -16.5049 -16.4902  -3.6759   3.2678   5.7904   6.4808   9.7783  10.7329
    12.9499  13.0293

     occupation numbers 
     1.0000   1.0000   1.0000   1.0000   1.0000   1.0000   1.0000   1.0000
     1.0000   1.0000   1.0000   1.0000   1.0000   1.0000   0.0000   0.0000
     0.0000   0.0000

          k = 0.1682 0.3807-0.0544 (  1593 PWs)   bands (ev):

   -16.7937 -16.7861 -16.7488 -16.6903 -16.6584 -16.6139 -16.5567 -16.5308
   -16.4949 -16.4834  -3.2606   2.3386   5.2268   6.2163  10.0370  11.0255
    12.7573  13.4863

     occupation numbers 
     1.0000   1.0000   1.0000   1.0000   1.0000   1.0000   1.0000   1.0000
     1.0000   1.0000   1.0000   1.0000   1.0000   1.0000   0.0000   0.0000
     0.0000   0.0000

          k = 0.2243 0.4351-0.1088 (  1596 PWs)   bands (ev):

   -16.7991 -16.7913 -16.7368 -16.6812 -16.6531 -16.6173 -16.5667 -16.5440
   -16.4870 -16.4777  -2.7634   1.4114   4.8061   5.9976  10.0499  11.6087
    12.8512  13.6511

     occupation numbers 
     1.0000   1.0000   1.0000   1.0000   1.0000   1.0000   1.0000   1.0000
     1.0000   1.0000   1.0000   1.0000   1.0000   1.0000   0.0000   0.0000
     0.0000   0.0000

          k =-0.4486-0.2176 0.5439 (  1598 PWs)   bands (ev):

   -16.8026 -16.7946 -16.7271 -16.6734 -16.6539 -16.6140 -16.5767 -16.5541
   -16.4818 -16.4742  -2.2932   0.6743   4.5197   5.9107  10.0443  11.7493
    13.3384  14.0376

     occupation numbers 
     1.0000   1.0000   1.0000   1.0000   1.0000   1.0000   1.0000   1.0000
     1.0000   1.0000   1.0000   1.0000   1.0000   1.0000   0.0000   0.0000
     0.0000   0.0000

          k =-0.3925-0.1632 0.4895 (  1590 PWs)   bands (ev):

   -16.8033 -16.7963 -16.7224 -16.6712 -16.6564 -16.6086 -16.5815 -16.5593
   -16.4792 -16.4739  -2.1296   0.4468   4.3705   5.9733  10.1051  11.7175
    13.2889  15.0982

     occupation numbers 
     1.0000   1.0000   1.0000   1.0000   1.0000   1.0000   1.0000   1.0000
     1.0000   1.0000   1.0000   1.0000   1.0000   1.0000   0.0000   0.0000
     0.0000   0.0000

          k =-0.3365-0.1088 0.4351 (  1591 PWs)   bands (ev):

   -16.8006 -16.7965 -16.7238 -16.6786 -16.6566 -16.6070 -16.5737 -16.5599
   -16.4792 -16.4772  -2.4401   0.9021   4.3791   6.1729  10.2278  11.7073
    13.1168  14.3191

     occupation numbers 
     1.0000   1.0000   1.0000   1.0000   1.0000   1.0000   1.0000   1.0000
     1.0000   1.0000   1.0000   1.0000   1.0000   1.0000   0.0000   0.0000
     0.0000   0.0000

          k =-0.2804-0.0544 0.3807 (  1592 PWs)   bands (ev):

   -16.7958 -16.7939 -16.7314 -16.6886 -16.6607 -16.6043 -16.5602 -16.5546
   -16.4857 -16.4802  -2.9392   1.7224   4.5870   6.4764  10.3726  11.5912
    12.8333  13.3443

     occupation numbers 
     1.0000   1.0000   1.0000   1.0000   1.0000   1.0000   1.0000   1.0000
     1.0000   1.0000   1.0000   1.0000   1.0000   1.0000   0.0000   0.0000
     0.0000   0.0000

          k =-0.2243 0.0000 0.3264 (  1594 PWs)   bands (ev):

   -16.7921 -16.7861 -16.7429 -16.6972 -16.6704 -16.5963 -16.5533 -16.5395
   -16.4964 -16.4841  -3.4139   2.6123   5.0651   6.8184  10.4107  11.0897
    12.6808  12.7828

     occupation numbers 
     1.0000   1.0000   1.0000   1.0000   1.0000   1.0000   1.0000   1.0000
     1.0000   1.0000   1.0000   1.0000   1.0000   1.0000   0.0000   0.0000
     0.0000   0.0000

          k =-0.2804-0.3807 0.7071 (  1592 PWs)   bands (ev):

   -16.8014 -16.7958 -16.7153 -16.6759 -16.6539 -16.6033 -16.5864 -16.5647
   -16.4796 -16.4767  -2.4281   1.1195   3.9924   6.1635  10.2234  11.9150
    12.7654  14.3716

     occupation numbers 
     1.0000   1.0000   1.0000   1.0000   1.0000   1.0000   1.0000   1.0000
     1.0000   1.0000   1.0000   1.0000   1.0000   1.0000   0.0000   0.0000
     0.0000   0.0000

          k =-0.2243-0.3264 0.6527 (  1594 PWs)   bands (ev):

   -16.8070 -16.7968 -16.7110 -16.6588 -16.6473 -16.6126 -16.6028 -16.5669
   -16.4783 -16.4697  -1.9485   0.4988   3.8077   5.8273  10.0140  12.2879
    13.5259  14.6472

     occupation numbers 
     1.0000   1.0000   1.0000   1.0000   1.0000   1.0000   1.0000   1.0000
     1.0000   1.0000   1.0000   1.0000   1.0000   1.0000   0.0000   0.0000
     0.0000   0.0000

          k =-0.1682-0.2720 0.5983 (  1600 PWs)   bands (ev):

   -16.8086 -16.7963 -16.7137 -16.6528 -16.6431 -16.6273 -16.5981 -16.5646
   -16.4788 -16.4675  -1.7532   0.2383   3.9298   5.5799   9.8292  12.3897
    13.4607  14.5675

     occupation numbers 
     1.0000   1.0000   1.0000   1.0000   1.0000   1.0000   1.0000   1.0000
     1.0000   1.0000   1.0000   1.0000   1.0000   1.0000   0.0000   0.0000
     0.0000   0.0000

          k =-0.1122-0.2176 0.5439 (  1604 PWs)   bands (ev):

   -16.8059 -16.7948 -16.7238 -16.6604 -16.6446 -16.6286 -16.5873 -16.5549
   -16.4809 -16.4702  -2.0674   0.6117   4.2840   5.4618   9.7266  11.8558
    12.8135  15.0878

     occupation numbers 
     1.0000   1.0000   1.0000   1.0000   1.0000   1.0000   1.0000   1.0000
     1.0000   1.0000   1.0000   1.0000   1.0000   1.0000   0.0000   0.0000
     0.0000   0.0000

          k =-0.0561-0.1632 0.4895 (  1603 PWs)   bands (ev):

   -16.7998 -16.7924 -16.7388 -16.6702 -16.6432 -16.6321 -16.5758 -16.5393
   -16.4844 -16.4771  -2.5758   1.3055   4.8003   5.4980   9.6517  10.8163
    13.0467  15.2065

     occupation numbers 
     1.0000   1.0000   1.0000   1.0000   1.0000   1.0000   1.0000   1.0000
     1.0000   1.0000   1.0000   1.0000   1.0000   1.0000   0.0000   0.0000
     0.0000   0.0000

          k = 0.0000-0.1088 0.4351 (  1596 PWs)   bands (ev):

   -16.7926 -16.7884 -16.7536 -16.6805 -16.6416 -16.6348 -16.5647 -16.5237
   -16.4896 -16.4861  -3.0521   2.0644   5.3584   5.6937   9.3605  10.4366
    13.3325  14.8812

     occupation numbers 
     1.0000   1.0000   1.0000   1.0000   1.0000   1.0000   1.0000   1.0000
     1.0000   1.0000   1.0000   1.0000   1.0000   1.0000   0.0000   0.0000
     0.0000   0.0000

          k =-0.1682-0.3807 0.7071 (  1597 PWs)   bands (ev):

   -16.8055 -16.7994 -16.7018 -16.6565 -16.6349 -16.6294 -16.6022 -16.5741
   -16.4760 -16.4709  -1.7631   0.3995   3.8336   5.2617  10.9984  11.6998
    12.3001  14.9402

     occupation numbers 
     1.0000   1.0000   1.0000   1.0000   1.0000   1.0000   1.0000   1.0000
     1.0000   1.0000   1.0000   1.0000   1.0000   1.0000   0.0000   0.0000
     0.0000   0.0000

          k =-0.1122-0.3264 0.6527 (  1594 PWs)   bands (ev):

   -16.8086 -16.8005 -16.6973 -16.6474 -16.6398 -16.6266 -16.6102 -16.5778
   -16.4746 -16.4671  -1.4010  -0.0174   3.8333   4.9948  10.8095  12.0700
    13.2967  13.5029

     occupation numbers 
     1.0000   1.0000   1.0000   1.0000   1.0000   1.0000   1.0000   1.0000
     1.0000   1.0000   1.0000   1.0000   1.0000   1.0000   0.0000   0.0000
     0.0000   0.0000

          k =-0.0561-0.2720 0.5983 (  1601 PWs)   bands (ev):

   -16.8078 -16.8000 -16.7043 -16.6528 -16.6496 -16.6191 -16.6009 -16.5725
   -16.4753 -16.4677  -1.5825   0.1510   4.0796   4.9096  10.6589  11.8284
    12.4564  14.8157

     occupation numbers 
     1.0000   1.0000   1.0000   1.0000   1.0000   1.0000   1.0000   1.0000
     1.0000   1.0000   1.0000   1.0000   1.0000   1.0000   0.0000   0.0000
     0.0000   0.0000

          k = 0.0000-0.2176 0.5439 (  1608 PWs)   bands (ev):

   -16.8039 -16.7977 -16.7213 -16.6599 -16.6508 -16.6229 -16.5878 -16.5568
   -16.4782 -16.4720  -2.0822   0.7006   4.4342   5.0929  10.4098  10.8472
    12.7110  15.8418

     occupation numbers 
     1.0000   1.0000   1.0000   1.0000   1.0000   1.0000   1.0000   1.0000
     1.0000   1.0000   1.0000   1.0000   1.0000   1.0000   0.0000   0.0000
     0.0000   0.0000

          k =-0.0561-0.3807 0.7071 (  1597 PWs)   bands (ev):

   -16.8061 -16.8036 -16.6819 -16.6570 -16.6377 -16.6195 -16.6121 -16.5905
   -16.4717 -16.4693  -1.0438  -0.3167   3.9907   4.4820  11.6488  11.6886
    12.3769  13.5927

     occupation numbers 
     1.0000   1.0000   1.0000   1.0000   1.0000   1.0000   1.0000   1.0000
     1.0000   1.0000   1.0000   1.0000   1.0000   1.0000   0.0000   0.0000
     0.0000   0.0000

          k = 0.0000-0.3264 0.6527 (  1602 PWs)   bands (ev):

   -16.8079 -16.8034 -16.6841 -16.6606 -16.6393 -16.6168 -16.6089 -16.5893
   -16.4718 -16.4673  -1.0756  -0.3178   4.0590   4.4553  11.7607  11.9406
    12.3118  13.2742

     occupation numbers 
     1.0000   1.0000   1.0000   1.0000   1.0000   1.0000   1.0000   1.0000
     1.0000   1.0000   1.0000   1.0000   1.0000   1.0000   0.0000   0.0000
     0.0000   0.0000

          k = 0.0000 0.4351 0.0000 (  1598 PWs)   bands (ev):

   -16.7896 -16.7847 -16.7628 -16.6808 -16.6401 -16.6379 -16.5633 -16.5121
   -16.4952 -16.4892  -3.1289   2.2091   5.6546   5.7103   8.7994  10.1493
    14.4531  14.9781

     occupation numbers 
     1.0000   1.0000   1.0000   1.0000   1.0000   1.0000   1.0000   1.0000
     1.0000   1.0000   1.0000   1.0000   1.0000   1.0000   0.0000   0.0000
     0.0000   0.0000

          k = 0.0561 0.4895-0.0544 (  1601 PWs)   bands (ev):

   -16.7947 -16.7895 -16.7523 -16.6700 -16.6536 -16.6246 -16.5741 -16.5243
   -16.4881 -16.4822  -2.7123   1.5021   5.2427   5.5097   8.9386  10.0159
    14.5957  15.2836

     occupation numbers 
     1.0000   1.0000   1.0000   1.0000   1.0000   1.0000   1.0000   1.0000
     1.0000   1.0000   1.0000   1.0000   1.0000   1.0000   0.0000   0.0000
     0.0000   0.0000

          k = 0.1122 0.5439-0.1088 (  1604 PWs)   bands (ev):

   -16.8021 -16.7932 -16.7364 -16.6605 -16.6585 -16.6173 -16.5858 -16.5414
   -16.4826 -16.4739  -2.2103   0.7887   4.6059   5.4597   9.1354  10.6173
    14.3389  15.2653

     occupation numbers 
     1.0000   1.0000   1.0000   1.0000   1.0000   1.0000   1.0000   1.0000
     1.0000   1.0000   1.0000   1.0000   1.0000   1.0000   0.0000   0.0000
     0.0000   0.0000

          k =-0.5608-0.1088 0.5439 (  1600 PWs)   bands (ev):

   -16.8081 -16.7956 -16.7223 -16.6562 -16.6485 -16.6195 -16.5973 -16.5562
   -16.4790 -16.4677  -1.7322   0.2111   4.0466   5.5406   9.2293  11.8215
    14.1021  14.9815

     occupation numbers 
     1.0000   1.0000   1.0000   1.0000   1.0000   1.0000   1.0000   1.0000
     1.0000   1.0000   1.0000   1.0000   1.0000   1.0000   0.0000   0.0000
     0.0000   0.0000

          k =-0.5047-0.0544 0.4895 (  1592 PWs)   bands (ev):

   -16.8104 -16.7970 -16.7152 -16.6447 -16.6388 -16.6324 -16.6054 -16.5633
   -16.4772 -16.4656  -1.6163   0.1013   3.7084   5.7450   9.3942  13.2320
    13.9895  14.5002

     occupation numbers 
     1.0000   1.0000   1.0000   1.0000   1.0000   1.0000   1.0000   1.0000
     1.0000   1.0000   1.0000   1.0000   1.0000   1.0000   0.0000   0.0000
     0.0000   0.0000

          k =-0.4486 0.0000 0.4351 (  1589 PWs)   bands (ev):

   -16.8083 -16.7971 -16.7144 -16.6578 -16.6448 -16.6168 -16.6017 -16.5643
   -16.4773 -16.4685  -1.9909   0.5416   3.6886   6.0550   9.6368  13.6208
    13.7607  14.1397

     occupation numbers 
     1.0000   1.0000   1.0000   1.0000   1.0000   1.0000   1.0000   1.0000
     1.0000   1.0000   1.0000   1.0000   1.0000   1.0000   0.0000   0.0000
     0.0000   0.0000

          k = 0.1122 0.4351 0.0000 (  1599 PWs)   bands (ev):

   -16.7935 -16.7878 -16.7536 -16.6810 -16.6407 -16.6357 -16.5641 -16.5233
   -16.4919 -16.4839  -3.0496   2.0494   5.2777   5.7560   9.3948  10.4721
    13.7641  14.3853

     occupation numbers 
     1.0000   1.0000   1.0000   1.0000   1.0000   1.0000   1.0000   1.0000
     1.0000   1.0000   1.0000   1.0000   1.0000   1.0000   0.0000   0.0000
     0.0000   0.0000

          k = 0.1682 0.4895-0.0544 (  1599 PWs)   bands (ev):

   -16.7998 -16.7935 -16.7391 -16.6708 -16.6447 -16.6307 -16.5751 -16.5388
   -16.4839 -16.4767  -2.5726   1.2819   4.7346   5.5287   9.7185  10.8779
    13.4887  14.7646

     occupation numbers 
     1.0000   1.0000   1.0000   1.0000   1.0000   1.0000   1.0000   1.0000
     1.0000   1.0000   1.0000   1.0000   1.0000   1.0000   0.0000   0.0000
     0.0000   0.0000

          k =-0.5047-0.1632 0.5983 (  1598 PWs)   bands (ev):

   -16.8059 -16.7968 -16.7249 -16.6614 -16.6457 -16.6272 -16.5866 -16.5536
   -16.4789 -16.4702  -2.0673   0.5855   4.2458   5.4529   9.8293  11.9529
    13.2299  14.7212

     occupation numbers 
     1.0000   1.0000   1.0000   1.0000   1.0000   1.0000   1.0000   1.0000
     1.0000   1.0000   1.0000   1.0000   1.0000   1.0000   0.0000   0.0000
     0.0000   0.0000

          k =-0.4486-0.1088 0.5439 (  1594 PWs)   bands (ev):

   -16.8090 -16.7986 -16.7161 -16.6563 -16.6381 -16.6313 -16.5954 -16.5624
   -16.4762 -16.4671  -1.7640   0.2170   3.9178   5.5384   9.9660  12.7816
    13.5624  14.4632

     occupation numbers 
     1.0000   1.0000   1.0000   1.0000   1.0000   1.0000   1.0000   1.0000
     1.0000   1.0000   1.0000   1.0000   1.0000   1.0000   0.0000   0.0000
     0.0000   0.0000

          k =-0.3925-0.0544 0.4895 (  1596 PWs)   bands (ev):

   -16.8080 -16.7991 -16.7145 -16.6618 -16.6403 -16.6251 -16.5935 -16.5645
   -16.4756 -16.4687  -1.9708   0.4814   3.8191   5.7649  10.1785  12.7120
    13.7883  14.4874

     occupation numbers 
     1.0000   1.0000   1.0000   1.0000   1.0000   1.0000   1.0000   1.0000
     1.0000   1.0000   1.0000   1.0000   1.0000   1.0000   0.0000   0.0000
     0.0000   0.0000

          k =-0.3365 0.0000 0.4351 (  1602 PWs)   bands (ev):

   -16.8028 -16.7982 -16.7198 -16.6766 -16.6480 -16.6161 -16.5771 -16.5623
   -16.4770 -16.4752  -2.4529   1.0973   4.0199   6.0991  10.4022  12.3826
    12.9823  13.9262

     occupation numbers 
     1.0000   1.0000   1.0000   1.0000   1.0000   1.0000   1.0000   1.0000
     1.0000   1.0000   1.0000   1.0000   1.0000   1.0000   0.0000   0.0000
     0.0000   0.0000

          k = 0.2243 0.4351 0.0000 (  1594 PWs)   bands (ev):

   -16.7976 -16.7950 -16.7353 -16.6812 -16.6461 -16.6253 -16.5663 -16.5451
   -16.4840 -16.4785  -2.8177   1.6348   4.5975   5.9059  10.7286  11.0906
    12.4919  14.1928

     occupation numbers 
     1.0000   1.0000   1.0000   1.0000   1.0000   1.0000   1.0000   1.0000
     1.0000   1.0000   1.0000   1.0000   1.0000   1.0000   0.0000   0.0000
     0.0000   0.0000

          k =-0.4486-0.2176 0.6527 (  1600 PWs)   bands (ev):

   -16.8032 -16.7995 -16.7221 -16.6711 -16.6393 -16.6303 -16.5787 -16.5579
   -16.4767 -16.4735  -2.3118   0.9061   4.2009   5.5973  10.9188  11.6349
    12.5845  14.6115

     occupation numbers 
     1.0000   1.0000   1.0000   1.0000   1.0000   1.0000   1.0000   1.0000
     1.0000   1.0000   1.0000   1.0000   1.0000   1.0000   0.0000   0.0000
     0.0000   0.0000

          k =-0.3925-0.1632 0.5983 (  1598 PWs)   bands (ev):

   -16.8072 -16.8007 -16.7143 -16.6629 -16.6381 -16.6296 -16.5900 -16.5644
   -16.4745 -16.4691  -1.8904   0.3534   4.0184   5.4181  10.9414  11.6571
    13.6542  14.5965

     occupation numbers 
     1.0000   1.0000   1.0000   1.0000   1.0000   1.0000   1.0000   1.0000
     1.0000   1.0000   1.0000   1.0000   1.0000   1.0000   0.0000   0.0000
     0.0000   0.0000

          k =-0.1682-0.2720 0.7071 (  1591 PWs)   bands (ev):

   -16.8100 -16.7985 -16.7078 -16.6400 -16.6387 -16.6310 -16.6129 -16.5692
   -16.4759 -16.4659  -1.4815   0.0157   3.6764   5.4819   9.7613  13.1809
    13.6547  13.7699

     occupation numbers 
     1.0000   1.0000   1.0000   1.0000   1.0000   1.0000   1.0000   1.0000
     1.0000   1.0000   1.0000   1.0000   1.0000   1.0000   0.0000   0.0000
     0.0000   0.0000

          k =-0.1122-0.2176 0.6527 (  1600 PWs)   bands (ev):

   -16.8088 -16.7985 -16.7104 -16.6629 -16.6378 -16.6119 -16.6097 -16.5673
   -16.4759 -16.4666  -1.3345  -0.1724   3.9356   5.2343   9.5572  11.7638
    13.8718  15.0520

     occupation numbers 
     1.0000   1.0000   1.0000   1.0000   1.0000   1.0000   1.0000   1.0000
     1.0000   1.0000   1.0000   1.0000   1.0000   1.0000   0.0000   0.0000
     0.0000   0.0000

          k =-0.0561-0.1632 0.5983 (  1604 PWs)   bands (ev):

   -16.8037 -16.7974 -16.7230 -16.6712 -16.6474 -16.6057 -16.5980 -16.5549
   -16.4775 -16.4715  -1.7463   0.2484   4.4551   5.1209   9.4355  10.4811
    14.1514  16.1322

     occupation numbers 
     1.0000   1.0000   1.0000   1.0000   1.0000   1.0000   1.0000   1.0000
     1.0000   1.0000   1.0000   1.0000   1.0000   1.0000   0.0000   0.0000
     0.0000   0.0000

          k = 0.0000-0.1088 0.5439 (  1604 PWs)   bands (ev):

   -16.7976 -16.7944 -16.7404 -16.6662 -16.6585 -16.6121 -16.5856 -16.5370
   -16.4816 -16.4780  -2.2637   0.8657   5.0069   5.2016   9.1596   9.8630
    14.4533  16.2227

     occupation numbers 
     1.0000   1.0000   1.0000   1.0000   1.0000   1.0000   1.0000   1.0000
     1.0000   1.0000   1.0000   1.0000   1.0000   1.0000   0.0000   0.0000
     0.0000   0.0000

          k =-0.0561-0.2720 0.7071 (  1605 PWs)   bands (ev):

   -16.8078 -16.8031 -16.6919 -16.6681 -16.6302 -16.6213 -16.6048 -16.5830
   -16.4717 -16.4674  -0.9724  -0.4800   4.0178   4.6756  10.5958  11.8205
    13.4942  13.5821

     occupation numbers 
     1.0000   1.0000   1.0000   1.0000   1.0000   1.0000   1.0000   1.0000
     1.0000   1.0000   1.0000   1.0000   1.0000   1.0000   0.0000   0.0000
     0.0000   0.0000

          k =-0.0000-0.2176 0.6527 (  1605 PWs)   bands (ev):

   -16.8050 -16.8026 -16.7021 -16.6782 -16.6362 -16.6114 -16.5974 -16.5745
   -16.4723 -16.4698  -1.2208  -0.2791   4.3931   4.6097  10.3778  10.5409
    13.8208  15.0779

     occupation numbers 
     1.0000   1.0000   1.0000   1.0000   1.0000   1.0000   1.0000   1.0000
     1.0000   1.0000   1.0000   1.0000   1.0000   1.0000   0.0000   0.0000
     0.0000   0.0000

          k = 0.0000 0.5439 0.0000 (  1604 PWs)   bands (ev):

   -16.7947 -16.7916 -16.7490 -16.6725 -16.6583 -16.6072 -16.5850 -16.5283
   -16.4845 -16.4807  -2.3270   0.9196   5.2859   5.3174   8.6240   9.4704
    15.7443  16.3072

     occupation numbers 
     1.0000   1.0000   1.0000   1.0000   1.0000   1.0000   1.0000   1.0000
     1.0000   1.0000   1.0000   1.0000   1.0000   1.0000   0.0001   0.0000
     0.0000   0.0000

          k = 0.0561 0.5983-0.0544 (  1597 PWs)   bands (ev):

   -16.7985 -16.7949 -16.7356 -16.6845 -16.6464 -16.5969 -16.5949 -16.5425
   -16.4797 -16.4761  -1.8416   0.2939   4.9200   5.2225   8.8201   9.4786
    15.8717  16.4816

     occupation numbers 
     1.0000   1.0000   1.0000   1.0000   1.0000   1.0000   1.0000   1.0000
     1.0000   1.0000   1.0000   1.0000   1.0000   1.0000   0.0000   0.0000
     0.0000   0.0000

          k =-0.6168-0.0544 0.5983 (  1601 PWs)   bands (ev):

   -16.8051 -16.7967 -16.7198 -16.6852 -16.6351 -16.6093 -16.5925 -16.5590
   -16.4771 -16.4696  -1.3268  -0.2575   4.3196   5.2738   8.9657  10.3686
    15.5989  16.1626

     occupation numbers 
     1.0000   1.0000   1.0000   1.0000   1.0000   1.0000   1.0000   1.0000
     1.0000   1.0000   1.0000   1.0000   1.0000   1.0000   0.0000   0.0000
     0.0000   0.0000

          k =-0.5608 0.0000 0.5439 (  1597 PWs)   bands (ev):

   -16.8099 -16.7974 -16.7143 -16.6670 -16.6309 -16.6154 -16.6085 -16.5644
   -16.4763 -16.4653  -1.2010  -0.3438   3.8438   5.4530   9.1322  11.7390
    15.1646  15.3431

     occupation numbers 
     1.0000   1.0000   1.0000   1.0000   1.0000   1.0000   1.0000   1.0000
     1.0000   1.0000   1.0000   1.0000   1.0000   1.0000   0.0000   0.0000
     0.0000   0.0000

          k = 0.1122 0.5439-0.0000 (  1597 PWs)   bands (ev):

   -16.7980 -16.7948 -16.7406 -16.6670 -16.6588 -16.6113 -16.5854 -16.5368
   -16.4814 -16.4775  -2.2628   0.8557   4.9500   5.2275   9.1981   9.8969
    14.9907  15.7121

     occupation numbers 
     1.0000   1.0000   1.0000   1.0000   1.0000   1.0000   1.0000   1.0000
     1.0000   1.0000   1.0000   1.0000   1.0000   1.0000   0.0000   0.0000
     0.0000   0.0000

          k =-0.5608-0.1088 0.6527 (  1596 PWs)   bands (ev):

   -16.8042 -16.7985 -16.7238 -16.6729 -16.6476 -16.6043 -16.5976 -16.5540
   -16.4763 -16.4710  -1.7474   0.2332   4.4232   5.1017   9.5088  10.5390
    14.6930  15.9003

     occupation numbers 
     1.0000   1.0000   1.0000   1.0000   1.0000   1.0000   1.0000   1.0000
     1.0000   1.0000   1.0000   1.0000   1.0000   1.0000   0.0000   0.0000
     0.0000   0.0000

          k =-0.5047-0.0544 0.5983 (  1596 PWs)   bands (ev):

   -16.8097 -16.7999 -16.7121 -16.6660 -16.6383 -16.6114 -16.6065 -16.5657
   -16.4743 -16.4656  -1.3439  -0.1871   3.9236   5.1858   9.6666  11.8346
    14.3910  15.3462

     occupation numbers 
     1.0000   1.0000   1.0000   1.0000   1.0000   1.0000   1.0000   1.0000
     1.0000   1.0000   1.0000   1.0000   1.0000   1.0000   0.0000   0.0000
     0.0000   0.0000

          k =-0.4486-0.0000 0.5439 (  1600 PWs)   bands (ev):

   -16.8112 -16.8002 -16.7104 -16.6467 -16.6430 -16.6236 -16.6088 -16.5672
   -16.4741 -16.4646  -1.5013   0.0021   3.6810   5.4173   9.9019  13.3315
    14.1181  14.1415

     occupation numbers 
     1.0000   1.0000   1.0000   1.0000   1.0000   1.0000   1.0000   1.0000
     1.0000   1.0000   1.0000   1.0000   1.0000   1.0000   0.0000   0.0000
     0.0000   0.0000

          k =-0.5047-0.1632 0.7071 (  1595 PWs)   bands (ev):

   -16.8024 -16.8018 -16.7229 -16.6601 -16.6544 -16.6199 -16.5873 -16.5549
   -16.4745 -16.4730  -2.0804   0.6619   4.3452   5.1267  10.5204  10.9682
    13.2097  15.5692

     occupation numbers 
     1.0000   1.0000   1.0000   1.0000   1.0000   1.0000   1.0000   1.0000
     1.0000   1.0000   1.0000   1.0000   1.0000   1.0000   0.0000   0.0000
     0.0000   0.0000

          k =-0.4486-0.1088 0.6527 (  1603 PWs)   bands (ev):

   -16.8082 -16.8037 -16.7084 -16.6589 -16.6486 -16.6151 -16.6001 -16.5685
   -16.4713 -16.4673  -1.5909   0.1065   4.0240   4.9070  10.8281  12.0119
    12.9069  15.2036

     occupation numbers 
     1.0000   1.0000   1.0000   1.0000   1.0000   1.0000   1.0000   1.0000
     1.0000   1.0000   1.0000   1.0000   1.0000   1.0000   0.0000   0.0000
     0.0000   0.0000

          k =-0.3925-0.0544 0.5983 (  1600 PWs)   bands (ev):

   -16.8104 -16.8040 -16.7035 -16.6550 -16.6437 -16.6192 -16.6054 -16.5727
   -16.4707 -16.4651  -1.4345  -0.0551   3.8316   4.9499  11.0329  12.5449
    13.5664  13.8491

     occupation numbers 
     1.0000   1.0000   1.0000   1.0000   1.0000   1.0000   1.0000   1.0000
     1.0000   1.0000   1.0000   1.0000   1.0000   1.0000   0.0000   0.0000
     0.0000   0.0000

          k =-0.3365 0.0000 0.5439 (  1601 PWs)   bands (ev):

   -16.8082 -16.8031 -16.7094 -16.6575 -16.6435 -16.6255 -16.5955 -16.5681
   -16.4719 -16.4680  -1.8104   0.3577   3.8696   5.2046  11.2687  12.1952
    12.6491  14.9530

     occupation numbers 
     1.0000   1.0000   1.0000   1.0000   1.0000   1.0000   1.0000   1.0000
     1.0000   1.0000   1.0000   1.0000   1.0000   1.0000   0.0000   0.0000
     0.0000   0.0000

          k =-0.0561-0.1632 0.7071 (  1603 PWs)   bands (ev):

   -16.8050 -16.7993 -16.7081 -16.6905 -16.6251 -16.6201 -16.5867 -16.5702
   -16.4747 -16.4696  -0.9254  -0.6504   4.3354   4.9966   9.3634  10.3465
    15.3728  15.3730

     occupation numbers 
     1.0000   1.0000   1.0000   1.0000   1.0000   1.0000   1.0000   1.0000
     1.0000   1.0000   1.0000   1.0000   1.0000   1.0000   0.0000   0.0000
     0.0000   0.0000

          k = 0.0000-0.1088 0.6527 (  1603 PWs)   bands (ev):

   -16.7997 -16.7985 -16.7207 -16.6954 -16.6343 -16.6094 -16.5835 -16.5578
   -16.4757 -16.4743  -1.3312  -0.2778   4.8584   4.9219   9.1730   9.4110
    15.6789  16.6589

     occupation numbers 
     1.0000   1.0000   1.0000   1.0000   1.0000   1.0000   1.0000   1.0000
     1.0000   1.0000   1.0000   1.0000   1.0000   1.0000   0.0000   0.0000
     0.0000   0.0000

          k = 0.0000 0.6527 0.0000 (  1604 PWs)   bands (ev):

   -16.7969 -16.7958 -16.7286 -16.7026 -16.6338 -16.6089 -16.5775 -16.5506
   -16.4779 -16.4767  -1.3721  -0.2824   5.1030   5.1132   8.6734   8.9577
    16.8880  17.2196

     occupation numbers 
     1.0000   1.0000   1.0000   1.0000   1.0000   1.0000   1.0000   1.0000
     1.0000   1.0000   1.0000   1.0000   1.0000   1.0000   0.0000   0.0000
     0.0000   0.0000

          k =-0.6729 0.0000 0.6527 (  1597 PWs)   bands (ev):

   -16.7998 -16.7969 -16.7159 -16.7090 -16.6224 -16.6207 -16.5700 -16.5637
   -16.4765 -16.4741  -0.8748  -0.7873   4.8117   5.1258   8.8261   9.2430
    16.7995  16.9162

     occupation numbers 
     1.0000   1.0000   1.0000   1.0000   1.0000   1.0000   1.0000   1.0000
     1.0000   1.0000   1.0000   1.0000   1.0000   1.0000   0.0000   0.0000
     0.0000   0.0000

          k =-0.6168-0.0544 0.7071 (  1596 PWs)   bands (ev):

   -16.8001 -16.7990 -16.7211 -16.6961 -16.6343 -16.6093 -16.5829 -16.5574
   -16.4751 -16.4739  -1.3327  -0.2830   4.8260   4.9166   9.2122   9.4483
    16.2123  16.6776

     occupation numbers 
     1.0000   1.0000   1.0000   1.0000   1.0000   1.0000   1.0000   1.0000
     1.0000   1.0000   1.0000   1.0000   1.0000   1.0000   0.0000   0.0000
     0.0000   0.0000

          k =-0.5608 0.0000 0.6527 (  1593 PWs)   bands (ev):

   -16.8058 -16.8002 -16.7092 -16.6919 -16.6253 -16.6198 -16.5852 -16.5691
   -16.4737 -16.4688  -0.9332  -0.6569   4.3160   4.9591   9.4391  10.4053
    15.8118  15.9176

     occupation numbers 
     1.0000   1.0000   1.0000   1.0000   1.0000   1.0000   1.0000   1.0000
     1.0000   1.0000   1.0000   1.0000   1.0000   1.0000   0.0000   0.0000
     0.0000   0.0000

          k =-0.5047-0.0544 0.7071 (  1595 PWs)   bands (ev):

   -16.8054 -16.8053 -16.7047 -16.6814 -16.6361 -16.6112 -16.5944 -16.5720
   -16.4695 -16.4693  -1.2297  -0.3023   4.3366   4.5941  10.4936  10.6560
    14.3880  15.5718

     occupation numbers 
     1.0000   1.0000   1.0000   1.0000   1.0000   1.0000   1.0000   1.0000
     1.0000   1.0000   1.0000   1.0000   1.0000   1.0000   0.0000   0.0000
     0.0000   0.0000

          k =-0.4486 0.0000 0.6527 (  1598 PWs)   bands (ev):

   -16.8099 -16.8053 -16.6965 -16.6742 -16.6311 -16.6194 -16.5992 -16.5792
   -16.4692 -16.4651  -1.0001  -0.5039   4.0016   4.6243  10.7656  11.9615
    14.0542  14.1012

     occupation numbers 
     1.0000   1.0000   1.0000   1.0000   1.0000   1.0000   1.0000   1.0000
     1.0000   1.0000   1.0000   1.0000   1.0000   1.0000   0.0000   0.0000
     0.0000   0.0000

          k =-0.3925-0.0544 0.7071 (  1599 PWs)   bands (ev):

   -16.8097 -16.8076 -16.6923 -16.6697 -16.6370 -16.6160 -16.6023 -16.5821
   -16.4672 -16.4654  -1.1036  -0.3736   4.0115   4.4659  12.1246  12.1444
    12.6429  13.7892

     occupation numbers 
     1.0000   1.0000   1.0000   1.0000   1.0000   1.0000   1.0000   1.0000
     1.0000   1.0000   1.0000   1.0000   1.0000   1.0000   0.0000   0.0000
     0.0000   0.0000

     the Fermi energy is     8.0030 ev

!    total energy              =    -426.38059362 Ry
     estimated scf accuracy    <          7.0E-12 Ry
     smearing contrib. (-TS)   =       0.00012076 Ry
     internal energy E=F+TS    =    -426.38071438 Ry

     The total energy is F=E-TS. E is the sum of the following terms:
     one-electron contribution =    -281.19990801 Ry
     hartree contribution      =     165.97756190 Ry
     xc contribution           =    -115.25104917 Ry
     ewald contribution        =    -195.90731910 Ry

     convergence has been achieved in   9 iterations

     Forces acting on atoms (cartesian axes, Ry/au):

     atom    1 type  1   force =    -0.00000000   -0.00000000    0.00000000
     atom    2 type  1   force =     0.00000000    0.00000000   -0.00000000
     The non-local contrib.  to forces
     atom    1 type  1   force =     0.00000000    0.00000000    0.00000000
     atom    2 type  1   force =     0.00000000    0.00000000    0.00000000
     The ionic contribution  to forces
     atom    1 type  1   force =    -0.00000000    0.00000000   -0.00000000
     atom    2 type  1   force =    -0.00000000    0.00000000   -0.00000000
     The local contribution  to forces
     atom    1 type  1   force =    -0.00000000    0.00000000    0.00000000
     atom    2 type  1   force =     0.00000000    0.00000000    0.00000000
     The core correction contribution to forces
     atom    1 type  1   force =    -0.00000000   -0.00000000    0.00000000
     atom    2 type  1   force =     0.00000000   -0.00000000    0.00000000
     The Hubbard contrib.    to forces
     atom    1 type  1   force =     0.00000000    0.00000000    0.00000000
     atom    2 type  1   force =     0.00000000    0.00000000    0.00000000
     The SCF correction term to forces
     atom    1 type  1   force =    -0.00000000    0.00000000    0.00000000
     atom    2 type  1   force =     0.00000000    0.00000000   -0.00000000

     Total force =     0.000000     Total SCF correction =     0.000000


     Computing stress (Cartesian axis) and pressure

          total   stress  (Ry/bohr**3)                   (kbar)     P=      -11.99
   0.00000857   0.00000000   0.00000000            1.26        0.00        0.00
   0.00000000  -0.00012659   0.00000000            0.00      -18.62        0.00
   0.00000000  -0.00000000  -0.00012659            0.00       -0.00      -18.62

     kinetic stress (kbar)   9789.49     -0.00      0.00
                               -0.00   9763.53      0.00
                                0.00      0.00   9763.53

     local   stress (kbar)   2941.34     -0.00     -0.00
                               -0.00    765.31     -0.00
                               -0.00     -0.00    765.31

     nonloc. stress (kbar)   2911.73     -0.00     -0.00
                               -0.00   2921.86     -0.00
                               -0.00      0.00   2921.86

     hartree stress (kbar)  25393.77      0.00      0.00
                                0.00  26281.52      0.00
                                0.00      0.00  26281.52

     exc-cor stress (kbar)  19157.14     -0.00      0.00
                               -0.00  19157.74     -0.00
                                0.00     -0.00  19157.74

     corecor stress (kbar) -28664.77      0.00      0.00
                                0.00 -28665.15      0.00
                                0.00      0.00 -28665.15

     ewald   stress (kbar) -31527.43     -0.00     -0.00
                               -0.00 -30243.43     -0.00
                               -0.00     -0.00 -30243.43

     hubbard stress (kbar)      0.00      0.00      0.00
                                0.00      0.00      0.00
                                0.00      0.00      0.00

     DFT-D   stress (kbar)      0.00      0.00      0.00
                                0.00      0.00      0.00
                                0.00      0.00      0.00

     XDM     stress (kbar)      0.00      0.00      0.00
                                0.00      0.00      0.00
                                0.00      0.00      0.00

     dft-nl  stress (kbar)      0.00      0.00      0.00
                                0.00      0.00      0.00
                                0.00      0.00      0.00

     TS-vdW  stress (kbar)      0.00      0.00      0.00
                                0.00      0.00      0.00
                                0.00      0.00      0.00

     MDB     stress (kbar)      0.00      0.00      0.00
                                0.00      0.00      0.00
                                0.00      0.00      0.00

     3D-RISM stress (kbar)      0.00      0.00      0.00
                                0.00      0.00      0.00
                                0.00      0.00      0.00


     Writing all to output data dir ./out/aiida.save/ :
     XML data file, charge density, pseudopotentials, collected wavefunctions

     init_run     :     19.81s CPU     10.37s WALL (       1 calls)
     electrons    :    609.70s CPU    319.55s WALL (       1 calls)
     forces       :      3.17s CPU      1.66s WALL (       1 calls)
     stress       :     16.19s CPU      9.57s WALL (       1 calls)

     Called by init_run:
     wfcinit      :     19.31s CPU      9.85s WALL (       1 calls)
     wfcinit:atom :      0.29s CPU      0.15s WALL (     196 calls)
     wfcinit:wfcr :     17.39s CPU      8.89s WALL (     196 calls)
     potinit      :      0.06s CPU      0.07s WALL (       1 calls)
     hinit0       :      0.24s CPU      0.24s WALL (       1 calls)

     Called by electrons:
     c_bands      :    511.03s CPU    265.20s WALL (      10 calls)
     sum_band     :     95.89s CPU     51.52s WALL (      10 calls)
     v_of_rho     :      0.71s CPU      0.70s WALL (      10 calls)
     v_h          :      0.04s CPU      0.04s WALL (      10 calls)
     v_xc         :      0.93s CPU      0.83s WALL (      12 calls)
     newd         :      2.10s CPU      2.17s WALL (      10 calls)
     mix_rho      :      0.07s CPU      0.07s WALL (      10 calls)

     Called by c_bands:
     init_us_2    :     11.45s CPU      5.16s WALL (    4508 calls)
     cegterg      :    490.69s CPU    255.04s WALL (    1960 calls)

     Called by sum_band:
     sum_band:wei :      0.17s CPU      0.08s WALL (      10 calls)
     sum_band:loo :     90.96s CPU     48.48s WALL (      10 calls)
     sum_band:buf :      0.53s CPU      0.18s WALL (    1960 calls)
     sum_band:ini :      4.89s CPU      2.27s WALL (    1960 calls)
     sum_band:cal :      4.45s CPU      2.78s WALL (    1960 calls)
     sum_band:bec :      0.16s CPU      0.06s WALL (    1960 calls)
     addusdens    :      4.64s CPU      2.85s WALL (      10 calls)
                                        0.00s GPU  (      10 calls)
     addusd:skk   :      0.02s CPU      0.01s WALL (      10 calls)
                                        0.00s GPU  (      10 calls)

     Called by *egterg:
     cdiaghg      :     13.76s CPU      5.70s WALL (    6048 calls)
     cegterg:over :     13.67s CPU      5.27s WALL (    4284 calls)
     cegterg:upda :      7.37s CPU      3.22s WALL (    4284 calls)
     cegterg:last :     12.71s CPU      4.71s WALL (    3676 calls)
     h_psi        :    439.96s CPU    237.32s WALL (    6440 calls)
     s_psi        :      8.55s CPU      3.27s WALL (    6440 calls)
     g_psi        :      2.20s CPU      0.69s WALL (    4284 calls)

     Called by h_psi:
     h_psi:calbec :     15.32s CPU     11.70s WALL (    6440 calls)
     vloc_psi     :    415.33s CPU    222.03s WALL (    6440 calls)
                                        0.00s GPU  (    6440 calls)
     add_vuspsi   :      8.07s CPU      3.09s WALL (    6440 calls)

     General routines
     calbec       :     26.85s CPU     18.78s WALL (   11732 calls)
     fft          :      0.55s CPU      0.48s WALL (     154 calls)
     ffts         :      0.05s CPU      0.03s WALL (      20 calls)
     fftw         :    446.61s CPU    240.69s WALL (  216614 calls)
     interpolate  :      0.04s CPU      0.04s WALL (      10 calls)

     Parallel routines

     PWSCF        :  10m49.26s CPU   5m41.54s WALL


   This run was terminated on:   0:57: 8  25Dec2025            

=------------------------------------------------------------------------------=
   JOB DONE.
=------------------------------------------------------------------------------=
