
     Program PWSCF v.7.4.1 starts on 25Dec2025 at  0: 3:15 

     This program is part of the open-source Quantum ESPRESSO suite
     for quantum simulation of materials; please cite
         "P. Giannozzi et al., J. Phys.:Condens. Matter 21 395502 (2009);
         "P. Giannozzi et al., J. Phys.:Condens. Matter 29 465901 (2017);
         "P. Giannozzi et al., J. Chem. Phys. 152 154105 (2020);
          URL http://www.quantum-espresso.org", 
     in publications or presentations arising from this work. More details at
     http://www.quantum-espresso.org/quote

     Parallel version (MPI), running on     1 processors

     MPI processes distributed on     1 nodes
     463 MiB available memory on the printing compute node when the environment starts

     Waiting for input...
     Reading input from standard input
Warning: card &CELL ignored

     Current dimensions of program PWSCF are:
     Max number of different atomic species (ntypx) = 10
     Max number of k-points (npk) =  40000
     Max angular momentum in pseudopotentials (lmaxx) =  4
     Message from routine setup:
     using ibrav=0 with symmetry is DISCOURAGED, use correct ibrav instead

     Subspace diagonalization in iterative solution of the eigenvalue problem:
     a serial algorithm will be used


     G-vector sticks info
     --------------------
     sticks:   dense  smooth     PW     G-vecs:    dense   smooth      PW
     Sum        1421     715    215                35427    12539    2157

     Using Slab Decomposition



     bravais-lattice index     =            0
     lattice parameter (alat)  =       7.7006  a.u.
     unit-cell volume          =     306.7432 (a.u.)^3
     number of atoms/cell      =            2
     number of atomic types    =            1
     number of electrons       =        28.00
     number of Kohn-Sham states=           18
     kinetic-energy cutoff     =      45.0000  Ry
     charge density cutoff     =     360.0000  Ry
     scf convergence threshold =      4.0E-10
     mixing beta               =       0.4000
     number of iterations used =            8  plain     mixing
     Exchange-correlation= SLA  PW   PSX  PSC
                           (   1   4  10   8   0   0   0)

     celldm(1)=   7.700556  celldm(2)=   0.000000  celldm(3)=   0.000000
     celldm(4)=   0.000000  celldm(5)=   0.000000  celldm(6)=   0.000000

     crystal axes: (cart. coord. in units of alat)
               a(1) = (   0.000000   0.707107   0.707107 )  
               a(2) = (   0.671751   0.000000   0.707107 )  
               a(3) = (   0.671751   0.707107   0.000000 )  

     reciprocal axes: (cart. coord. in units 2 pi/alat)
               b(1) = ( -0.744323  0.707107  0.707107 )  
               b(2) = (  0.744323 -0.707107  0.707107 )  
               b(3) = (  0.744323  0.707107 -0.707107 )  


     PseudoPot. # 1 for Ge read from file:
     ./pseudo/ge_pbesol_v1.4.uspp.F.UPF
     MD5 check sum: 7bed0412183f5e553a4d27ec7023354d
     Pseudo is Ultrasoft + core correction, Zval = 14.0
     Generated by new atomic code, or converted to UPF format
     Using radial grid of  873 points,  6 beta functions with: 
                l(1) =   0
                l(2) =   0
                l(3) =   1
                l(4) =   1
                l(5) =   2
                l(6) =   2
     Q(r) pseudized with  8 coefficients,  rinner =    1.400   1.400   1.400
                                                       1.400   1.400

     atomic species   valence    mass     pseudopotential
     Ge               14.00    72.64000     Ge( 1.00)

     16 Sym. Ops., with inversion, found ( 8 have fractional translation)


                                    s                        frac. trans.

      isym =  1     identity                                     

 cryst.   s( 1) = (     1          0          0      )
                  (     0          1          0      )
                  (     0          0          1      )

 cart.    s( 1) = (  1.0000000  0.0000000  0.0000000 )
                  (  0.0000000  1.0000000  0.0000000 )
                  (  0.0000000  0.0000000  1.0000000 )


      isym =  2     180 deg rotation - cart. axis [0,0,1]        

 cryst.   s( 2) = (     0          1         -1      )
                  (     1          0         -1      )
                  (     0          0         -1      )

 cart.    s( 2) = ( -1.0000000  0.0000000  0.0000000 )
                  (  0.0000000 -1.0000000  0.0000000 )
                  (  0.0000000  0.0000000  1.0000000 )


      isym =  3     180 deg rotation - cart. axis [0,1,0]        

 cryst.   s( 3) = (     0         -1          1      )
                  (     0         -1          0      )
                  (     1         -1          0      )

 cart.    s( 3) = ( -1.0000000  0.0000000  0.0000000 )
                  (  0.0000000  1.0000000  0.0000000 )
                  (  0.0000000  0.0000000 -1.0000000 )


      isym =  4     180 deg rotation - cart. axis [1,0,0]        

 cryst.   s( 4) = (    -1          0          0      )
                  (    -1          0          1      )
                  (    -1          1          0      )

 cart.    s( 4) = (  1.0000000  0.0000000  0.0000000 )
                  (  0.0000000 -1.0000000  0.0000000 )
                  (  0.0000000  0.0000000 -1.0000000 )


      isym =  5     180 deg rotation - cart. axis [0,1,1]        

 cryst.   s( 5) = (     1          0          0      )    f =( -0.2500000 )
                  (     1         -1          0      )       ( -0.2500000 )
                  (     1          0         -1      )       ( -0.2500000 )

 cart.    s( 5) = ( -1.0000000  0.0000000  0.0000000 )    f =( -0.3358757 )
                  (  0.0000000  0.0000000  1.0000000 )       ( -0.3535534 )
                  (  0.0000000  1.0000000  0.0000000 )       ( -0.3535534 )


      isym =  6     180 deg rotation - cart. axis [0,1,-1]       

 cryst.   s( 6) = (    -1          0          0      )    f =( -0.2500000 )
                  (     0          0         -1      )       ( -0.2500000 )
                  (     0         -1          0      )       ( -0.2500000 )

 cart.    s( 6) = ( -1.0000000  0.0000000  0.0000000 )    f =( -0.3358757 )
                  (  0.0000000  0.0000000 -1.0000000 )       ( -0.3535534 )
                  (  0.0000000 -1.0000000  0.0000000 )       ( -0.3535534 )


      isym =  7      90 deg rotation - cart. axis [-1,0,0]       

 cryst.   s( 7) = (     0         -1          1      )    f =( -0.2500000 )
                  (     0          0          1      )       ( -0.2500000 )
                  (    -1          0          1      )       ( -0.2500000 )

 cart.    s( 7) = (  1.0000000  0.0000000  0.0000000 )    f =( -0.3358757 )
                  (  0.0000000  0.0000000  1.0000000 )       ( -0.3535534 )
                  (  0.0000000 -1.0000000  0.0000000 )       ( -0.3535534 )


      isym =  8      90 deg rotation - cart. axis [1,0,0]        

 cryst.   s( 8) = (     0          1         -1      )    f =( -0.2500000 )
                  (    -1          1          0      )       ( -0.2500000 )
                  (     0          1          0      )       ( -0.2500000 )

 cart.    s( 8) = (  1.0000000  0.0000000  0.0000000 )    f =( -0.3358757 )
                  (  0.0000000  0.0000000 -1.0000000 )       ( -0.3535534 )
                  (  0.0000000  1.0000000  0.0000000 )       ( -0.3535534 )


      isym =  9     inversion                                    

 cryst.   s( 9) = (    -1          0          0      )    f =( -0.2500000 )
                  (     0         -1          0      )       ( -0.2500000 )
                  (     0          0         -1      )       ( -0.2500000 )

 cart.    s( 9) = ( -1.0000000  0.0000000  0.0000000 )    f =( -0.3358757 )
                  (  0.0000000 -1.0000000  0.0000000 )       ( -0.3535534 )
                  (  0.0000000  0.0000000 -1.0000000 )       ( -0.3535534 )


      isym = 10     inv. 180 deg rotation - cart. axis [0,0,1]   

 cryst.   s(10) = (     0         -1          1      )    f =( -0.2500000 )
                  (    -1          0          1      )       ( -0.2500000 )
                  (     0          0          1      )       ( -0.2500000 )

 cart.    s(10) = (  1.0000000  0.0000000  0.0000000 )    f =( -0.3358757 )
                  (  0.0000000  1.0000000  0.0000000 )       ( -0.3535534 )
                  (  0.0000000  0.0000000 -1.0000000 )       ( -0.3535534 )


      isym = 11     inv. 180 deg rotation - cart. axis [0,1,0]   

 cryst.   s(11) = (     0          1         -1      )    f =( -0.2500000 )
                  (     0          1          0      )       ( -0.2500000 )
                  (    -1          1          0      )       ( -0.2500000 )

 cart.    s(11) = (  1.0000000  0.0000000  0.0000000 )    f =( -0.3358757 )
                  (  0.0000000 -1.0000000  0.0000000 )       ( -0.3535534 )
                  (  0.0000000  0.0000000  1.0000000 )       ( -0.3535534 )


      isym = 12     inv. 180 deg rotation - cart. axis [1,0,0]   

 cryst.   s(12) = (     1          0          0      )    f =( -0.2500000 )
                  (     1          0         -1      )       ( -0.2500000 )
                  (     1         -1          0      )       ( -0.2500000 )

 cart.    s(12) = ( -1.0000000  0.0000000  0.0000000 )    f =( -0.3358757 )
                  (  0.0000000  1.0000000  0.0000000 )       ( -0.3535534 )
                  (  0.0000000  0.0000000  1.0000000 )       ( -0.3535534 )


      isym = 13     inv. 180 deg rotation - cart. axis [0,1,1]   

 cryst.   s(13) = (    -1          0          0      )
                  (    -1          1          0      )
                  (    -1          0          1      )

 cart.    s(13) = (  1.0000000  0.0000000  0.0000000 )
                  (  0.0000000  0.0000000 -1.0000000 )
                  (  0.0000000 -1.0000000  0.0000000 )


      isym = 14     inv. 180 deg rotation - cart. axis [0,1,-1]  

 cryst.   s(14) = (     1          0          0      )
                  (     0          0          1      )
                  (     0          1          0      )

 cart.    s(14) = (  1.0000000  0.0000000  0.0000000 )
                  (  0.0000000  0.0000000  1.0000000 )
                  (  0.0000000  1.0000000  0.0000000 )


      isym = 15     inv.  90 deg rotation - cart. axis [-1,0,0]  

 cryst.   s(15) = (     0          1         -1      )
                  (     0          0         -1      )
                  (     1          0         -1      )

 cart.    s(15) = ( -1.0000000  0.0000000  0.0000000 )
                  (  0.0000000  0.0000000 -1.0000000 )
                  (  0.0000000  1.0000000  0.0000000 )


      isym = 16     inv.  90 deg rotation - cart. axis [1,0,0]   

 cryst.   s(16) = (     0         -1          1      )
                  (     1         -1          0      )
                  (     0         -1          0      )

 cart.    s(16) = ( -1.0000000  0.0000000  0.0000000 )
                  (  0.0000000  0.0000000  1.0000000 )
                  (  0.0000000 -1.0000000  0.0000000 )


   Cartesian axes

     site n.     atom                  positions (alat units)
         1        Ge     tau(   1) = (   0.6717514   0.7071068   0.7071068  )
         2        Ge     tau(   2) = (   1.0076272   1.0606602   1.0606602  )

   Crystallographic axes

     site n.     atom                  positions (cryst. coord.)
         1        Ge     tau(   1) = (  0.5000000  0.5000000  0.5000000  )
         2        Ge     tau(   2) = (  0.7500000  0.7500000  0.7500000  )

     number of k points=   196  Marzari-Vanderbilt smearing, width (Ry)=  0.0200
                       cart. coord. in units 2pi/alat
        k(    1) = (   0.0000000   0.0000000   0.0000000), wk =   0.0009103
        k(    2) = (   0.0572556   0.0543928  -0.0543928), wk =   0.0072827
        k(    3) = (   0.1145112   0.1087857  -0.1087857), wk =   0.0072827
        k(    4) = (   0.1717668   0.1631785  -0.1631785), wk =   0.0072827
        k(    5) = (   0.2290224   0.2175713  -0.2175713), wk =   0.0072827
        k(    6) = (   0.2862780   0.2719641  -0.2719641), wk =   0.0072827
        k(    7) = (   0.3435337   0.3263570  -0.3263570), wk =   0.0072827
        k(    8) = (   0.1145112   0.0000000   0.0000000), wk =   0.0018207
        k(    9) = (   0.1717668   0.0543928  -0.0543928), wk =   0.0072827
        k(   10) = (   0.2290224   0.1087857  -0.1087857), wk =   0.0072827
        k(   11) = (   0.2862780   0.1631785  -0.1631785), wk =   0.0072827
        k(   12) = (   0.3435337   0.2175713  -0.2175713), wk =   0.0072827
        k(   13) = (   0.4007893   0.2719641  -0.2719641), wk =   0.0072827
        k(   14) = (  -0.2862780  -0.3807498   0.3807498), wk =   0.0072827
        k(   15) = (  -0.2290224  -0.3263570   0.3263570), wk =   0.0072827
        k(   16) = (  -0.1717668  -0.2719641   0.2719641), wk =   0.0072827
        k(   17) = (  -0.1145112  -0.2175713   0.2175713), wk =   0.0072827
        k(   18) = (  -0.0572556  -0.1631785   0.1631785), wk =   0.0072827
        k(   19) = (   0.0000000  -0.1087857   0.1087857), wk =   0.0036413
        k(   20) = (   0.2290224   0.0000000   0.0000000), wk =   0.0018207
        k(   21) = (   0.2862780   0.0543928  -0.0543928), wk =   0.0072827
        k(   22) = (   0.3435337   0.1087857  -0.1087857), wk =   0.0072827
        k(   23) = (   0.4007893   0.1631785  -0.1631785), wk =   0.0072827
        k(   24) = (   0.4580449   0.2175713  -0.2175713), wk =   0.0072827
        k(   25) = (  -0.2290224  -0.4351426   0.4351426), wk =   0.0072827
        k(   26) = (  -0.1717668  -0.3807498   0.3807498), wk =   0.0072827
        k(   27) = (  -0.1145112  -0.3263570   0.3263570), wk =   0.0072827
        k(   28) = (  -0.0572556  -0.2719641   0.2719641), wk =   0.0072827
        k(   29) = (   0.0000000  -0.2175713   0.2175713), wk =   0.0036413
        k(   30) = (   0.3435337   0.0000000   0.0000000), wk =   0.0018207
        k(   31) = (   0.4007893   0.0543928  -0.0543928), wk =   0.0072827
        k(   32) = (   0.4580449   0.1087857  -0.1087857), wk =   0.0072827
        k(   33) = (   0.5153005   0.1631785  -0.1631785), wk =   0.0072827
        k(   34) = (  -0.1717668  -0.4895355   0.4895355), wk =   0.0072827
        k(   35) = (  -0.1145112  -0.4351426   0.4351426), wk =   0.0072827
        k(   36) = (  -0.0572556  -0.3807498   0.3807498), wk =   0.0072827
        k(   37) = (   0.0000000  -0.3263570   0.3263570), wk =   0.0036413
        k(   38) = (   0.4580449   0.0000000   0.0000000), wk =   0.0018207
        k(   39) = (   0.5153005   0.0543928  -0.0543928), wk =   0.0072827
        k(   40) = (   0.5725561   0.1087857  -0.1087857), wk =   0.0072827
        k(   41) = (  -0.1145112  -0.5439283   0.5439283), wk =   0.0072827
        k(   42) = (  -0.0572556  -0.4895355   0.4895355), wk =   0.0072827
        k(   43) = (   0.0000000  -0.4351426   0.4351426), wk =   0.0036413
        k(   44) = (   0.5725561   0.0000000   0.0000000), wk =   0.0018207
        k(   45) = (   0.6298117   0.0543928  -0.0543928), wk =   0.0072827
        k(   46) = (  -0.0572556  -0.5983211   0.5983211), wk =   0.0072827
        k(   47) = (   0.0000000  -0.5439283   0.5439283), wk =   0.0036413
        k(   48) = (   0.6870673   0.0000000   0.0000000), wk =   0.0018207
        k(   49) = (   0.0000000  -0.6527140   0.6527140), wk =   0.0036413
        k(   50) = (   0.0000000   0.1087857   0.0000000), wk =   0.0036413
        k(   51) = (   0.0572556   0.1631785  -0.0543928), wk =   0.0145653
        k(   52) = (   0.1145112   0.2175713  -0.1087857), wk =   0.0145653
        k(   53) = (   0.1717668   0.2719641  -0.1631785), wk =   0.0145653
        k(   54) = (   0.2290224   0.3263570  -0.2175713), wk =   0.0145653
        k(   55) = (   0.2862780   0.3807498  -0.2719641), wk =   0.0145653
        k(   56) = (  -0.4007893  -0.2719641   0.3807498), wk =   0.0145653
        k(   57) = (  -0.3435337  -0.2175713   0.3263570), wk =   0.0145653
        k(   58) = (  -0.2862780  -0.1631785   0.2719641), wk =   0.0145653
        k(   59) = (  -0.2290224  -0.1087857   0.2175713), wk =   0.0145653
        k(   60) = (  -0.1717668  -0.0543928   0.1631785), wk =   0.0145653
        k(   61) = (  -0.1145112   0.0000000   0.1087857), wk =   0.0072827
        k(   62) = (   0.2290224   0.1087857   0.0000000), wk =   0.0072827
        k(   63) = (   0.2862780   0.1631785  -0.0543928), wk =   0.0145653
        k(   64) = (   0.3435337   0.2175713  -0.1087857), wk =   0.0145653
        k(   65) = (   0.4007893   0.2719641  -0.1631785), wk =   0.0145653
        k(   66) = (  -0.2862780  -0.3807498   0.4895355), wk =   0.0145653
        k(   67) = (  -0.2290224  -0.3263570   0.4351426), wk =   0.0145653
        k(   68) = (  -0.1717668  -0.2719641   0.3807498), wk =   0.0145653
        k(   69) = (  -0.1145112  -0.2175713   0.3263570), wk =   0.0145653
        k(   70) = (  -0.0572556  -0.1631785   0.2719641), wk =   0.0145653
        k(   71) = (   0.0000000  -0.1087857   0.2175713), wk =   0.0072827
        k(   72) = (   0.3435337   0.1087857   0.0000000), wk =   0.0072827
        k(   73) = (   0.4007893   0.1631785  -0.0543928), wk =   0.0145653
        k(   74) = (   0.4580449   0.2175713  -0.1087857), wk =   0.0145653
        k(   75) = (  -0.2290224  -0.4351426   0.5439283), wk =   0.0145653
        k(   76) = (  -0.1717668  -0.3807498   0.4895355), wk =   0.0145653
        k(   77) = (  -0.1145112  -0.3263570   0.4351426), wk =   0.0145653
        k(   78) = (  -0.0572556  -0.2719641   0.3807498), wk =   0.0145653
        k(   79) = (   0.0000000  -0.2175713   0.3263570), wk =   0.0072827
        k(   80) = (   0.4580449   0.1087857   0.0000000), wk =   0.0072827
        k(   81) = (   0.5153005   0.1631785  -0.0543928), wk =   0.0145653
        k(   82) = (  -0.1717668  -0.4895355   0.5983211), wk =   0.0145653
        k(   83) = (  -0.1145112  -0.4351426   0.5439283), wk =   0.0145653
        k(   84) = (  -0.0572556  -0.3807498   0.4895355), wk =   0.0145653
        k(   85) = (   0.0000000  -0.3263570   0.4351426), wk =   0.0072827
        k(   86) = (   0.5725561   0.1087857  -0.0000000), wk =   0.0072827
        k(   87) = (  -0.1145112  -0.5439283   0.6527140), wk =   0.0145653
        k(   88) = (  -0.0572556  -0.4895355   0.5983211), wk =   0.0145653
        k(   89) = (   0.0000000  -0.4351426   0.5439283), wk =   0.0072827
        k(   90) = (  -0.0572556  -0.5983211   0.7071068), wk =   0.0072827
        k(   91) = (   0.0000000  -0.5439283   0.6527140), wk =   0.0072827
        k(   92) = (   0.0000000   0.2175713   0.0000000), wk =   0.0036413
        k(   93) = (   0.0572556   0.2719641  -0.0543928), wk =   0.0145653
        k(   94) = (   0.1145112   0.3263570  -0.1087857), wk =   0.0145653
        k(   95) = (   0.1717668   0.3807498  -0.1631785), wk =   0.0145653
        k(   96) = (   0.2290224   0.4351426  -0.2175713), wk =   0.0145653
        k(   97) = (  -0.4580449  -0.2175713   0.4351426), wk =   0.0145653
        k(   98) = (  -0.4007893  -0.1631785   0.3807498), wk =   0.0145653
        k(   99) = (  -0.3435337  -0.1087857   0.3263570), wk =   0.0145653
        k(  100) = (  -0.2862780  -0.0543928   0.2719641), wk =   0.0145653
        k(  101) = (  -0.2290224   0.0000000   0.2175713), wk =   0.0072827
        k(  102) = (   0.1145112   0.2175713   0.0000000), wk =   0.0072827
        k(  103) = (   0.1717668   0.2719641  -0.0543928), wk =   0.0145653
        k(  104) = (   0.2290224   0.3263570  -0.1087857), wk =   0.0145653
        k(  105) = (   0.2862780   0.3807498  -0.1631785), wk =   0.0145653
        k(  106) = (  -0.4007893  -0.2719641   0.4895355), wk =   0.0145653
        k(  107) = (   0.3435337   0.2175713   0.0000000), wk =   0.0072827
        k(  108) = (   0.4007893   0.2719641  -0.0543928), wk =   0.0145653
        k(  109) = (  -0.2862780  -0.3807498   0.5983211), wk =   0.0145653
        k(  110) = (  -0.2290224  -0.3263570   0.5439283), wk =   0.0145653
        k(  111) = (  -0.1717668  -0.2719641   0.4895355), wk =   0.0145653
        k(  112) = (  -0.1145112  -0.2175713   0.4351426), wk =   0.0145653
        k(  113) = (  -0.0572556  -0.1631785   0.3807498), wk =   0.0145653
        k(  114) = (   0.0000000  -0.1087857   0.3263570), wk =   0.0072827
        k(  115) = (   0.4580449   0.2175713   0.0000000), wk =   0.0072827
        k(  116) = (  -0.2290224  -0.4351426   0.6527140), wk =   0.0145653
        k(  117) = (  -0.1717668  -0.3807498   0.5983211), wk =   0.0145653
        k(  118) = (  -0.1145112  -0.3263570   0.5439283), wk =   0.0145653
        k(  119) = (  -0.0572556  -0.2719641   0.4895355), wk =   0.0145653
        k(  120) = (   0.0000000  -0.2175713   0.4351426), wk =   0.0072827
        k(  121) = (  -0.1717668  -0.4895355   0.7071068), wk =   0.0072827
        k(  122) = (  -0.1145112  -0.4351426   0.6527140), wk =   0.0145653
        k(  123) = (  -0.0572556  -0.3807498   0.5983211), wk =   0.0145653
        k(  124) = (   0.0000000  -0.3263570   0.5439283), wk =   0.0072827
        k(  125) = (  -0.0572556  -0.4895355   0.7071068), wk =   0.0072827
        k(  126) = (   0.0000000  -0.4351426   0.6527140), wk =   0.0072827
        k(  127) = (   0.0000000   0.3263570   0.0000000), wk =   0.0036413
        k(  128) = (   0.0572556   0.3807498  -0.0543928), wk =   0.0145653
        k(  129) = (   0.1145112   0.4351426  -0.1087857), wk =   0.0145653
        k(  130) = (   0.1717668   0.4895355  -0.1631785), wk =   0.0145653
        k(  131) = (  -0.5153005  -0.1631785   0.4895355), wk =   0.0145653
        k(  132) = (  -0.4580449  -0.1087857   0.4351426), wk =   0.0145653
        k(  133) = (  -0.4007893  -0.0543928   0.3807498), wk =   0.0145653
        k(  134) = (  -0.3435337   0.0000000   0.3263570), wk =   0.0072827
        k(  135) = (   0.1145112   0.3263570   0.0000000), wk =   0.0072827
        k(  136) = (   0.1717668   0.3807498  -0.0543928), wk =   0.0145653
        k(  137) = (   0.2290224   0.4351426  -0.1087857), wk =   0.0145653
        k(  138) = (  -0.4580449  -0.2175713   0.5439283), wk =   0.0145653
        k(  139) = (  -0.4007893  -0.1631785   0.4895355), wk =   0.0145653
        k(  140) = (  -0.3435337  -0.1087857   0.4351426), wk =   0.0145653
        k(  141) = (  -0.2862780  -0.0543928   0.3807498), wk =   0.0145653
        k(  142) = (  -0.2290224   0.0000000   0.3263570), wk =   0.0072827
        k(  143) = (  -0.2862780  -0.3807498   0.7071068), wk =   0.0072827
        k(  144) = (  -0.2290224  -0.3263570   0.6527140), wk =   0.0145653
        k(  145) = (  -0.1717668  -0.2719641   0.5983211), wk =   0.0145653
        k(  146) = (  -0.1145112  -0.2175713   0.5439283), wk =   0.0145653
        k(  147) = (  -0.0572556  -0.1631785   0.4895355), wk =   0.0145653
        k(  148) = (   0.0000000  -0.1087857   0.4351426), wk =   0.0072827
        k(  149) = (  -0.1717668  -0.3807498   0.7071068), wk =   0.0072827
        k(  150) = (  -0.1145112  -0.3263570   0.6527140), wk =   0.0145653
        k(  151) = (  -0.0572556  -0.2719641   0.5983211), wk =   0.0145653
        k(  152) = (  -0.0000000  -0.2175713   0.5439283), wk =   0.0072827
        k(  153) = (  -0.0572556  -0.3807498   0.7071068), wk =   0.0072827
        k(  154) = (   0.0000000  -0.3263570   0.6527140), wk =   0.0072827
        k(  155) = (   0.0000000   0.4351426   0.0000000), wk =   0.0036413
        k(  156) = (   0.0572556   0.4895355  -0.0543928), wk =   0.0145653
        k(  157) = (   0.1145112   0.5439283  -0.1087857), wk =   0.0145653
        k(  158) = (  -0.5725561  -0.1087857   0.5439283), wk =   0.0145653
        k(  159) = (  -0.5153005  -0.0543928   0.4895355), wk =   0.0145653
        k(  160) = (  -0.4580449   0.0000000   0.4351426), wk =   0.0072827
        k(  161) = (   0.1145112   0.4351426   0.0000000), wk =   0.0072827
        k(  162) = (   0.1717668   0.4895355  -0.0543928), wk =   0.0145653
        k(  163) = (  -0.5153005  -0.1631785   0.5983211), wk =   0.0145653
        k(  164) = (  -0.4580449  -0.1087857   0.5439283), wk =   0.0145653
        k(  165) = (  -0.4007893  -0.0543928   0.4895355), wk =   0.0145653
        k(  166) = (  -0.3435337   0.0000000   0.4351426), wk =   0.0072827
        k(  167) = (   0.2290224   0.4351426   0.0000000), wk =   0.0072827
        k(  168) = (  -0.4580449  -0.2175713   0.6527140), wk =   0.0145653
        k(  169) = (  -0.4007893  -0.1631785   0.5983211), wk =   0.0145653
        k(  170) = (  -0.1717668  -0.2719641   0.7071068), wk =   0.0072827
        k(  171) = (  -0.1145112  -0.2175713   0.6527140), wk =   0.0145653
        k(  172) = (  -0.0572556  -0.1631785   0.5983211), wk =   0.0145653
        k(  173) = (   0.0000000  -0.1087857   0.5439283), wk =   0.0072827
        k(  174) = (  -0.0572556  -0.2719641   0.7071068), wk =   0.0072827
        k(  175) = (   0.0000000  -0.2175713   0.6527140), wk =   0.0072827
        k(  176) = (   0.0000000   0.5439283   0.0000000), wk =   0.0036413
        k(  177) = (   0.0572556   0.5983211  -0.0543928), wk =   0.0145653
        k(  178) = (  -0.6298117  -0.0543928   0.5983211), wk =   0.0145653
        k(  179) = (  -0.5725561   0.0000000   0.5439283), wk =   0.0072827
        k(  180) = (   0.1145112   0.5439283  -0.0000000), wk =   0.0072827
        k(  181) = (  -0.5725561  -0.1087857   0.6527140), wk =   0.0145653
        k(  182) = (  -0.5153005  -0.0543928   0.5983211), wk =   0.0145653
        k(  183) = (  -0.4580449  -0.0000000   0.5439283), wk =   0.0072827
        k(  184) = (  -0.5153005  -0.1631785   0.7071068), wk =   0.0072827
        k(  185) = (  -0.4580449  -0.1087857   0.6527140), wk =   0.0145653
        k(  186) = (  -0.4007893  -0.0543928   0.5983211), wk =   0.0145653
        k(  187) = (  -0.3435337   0.0000000   0.5439283), wk =   0.0072827
        k(  188) = (  -0.0572556  -0.1631785   0.7071068), wk =   0.0072827
        k(  189) = (   0.0000000  -0.1087857   0.6527140), wk =   0.0072827
        k(  190) = (   0.0000000   0.6527140   0.0000000), wk =   0.0036413
        k(  191) = (  -0.6870673   0.0000000   0.6527140), wk =   0.0072827
        k(  192) = (  -0.6298117  -0.0543928   0.7071068), wk =   0.0072827
        k(  193) = (  -0.5725561   0.0000000   0.6527140), wk =   0.0072827
        k(  194) = (  -0.5153005  -0.0543928   0.7071068), wk =   0.0072827
        k(  195) = (  -0.4580449   0.0000000   0.6527140), wk =   0.0072827
        k(  196) = (  -0.4007893  -0.0543928   0.7071068), wk =   0.0072827

                       cryst. coord.
        k(    1) = (   0.0000000   0.0000000   0.0000000), wk =   0.0009103
        k(    2) = (   0.0000000   0.0000000   0.0769231), wk =   0.0072827
        k(    3) = (   0.0000000   0.0000000   0.1538462), wk =   0.0072827
        k(    4) = (   0.0000000   0.0000000   0.2307692), wk =   0.0072827
        k(    5) = (   0.0000000   0.0000000   0.3076923), wk =   0.0072827
        k(    6) = (   0.0000000   0.0000000   0.3846154), wk =   0.0072827
        k(    7) = (   0.0000000   0.0000000   0.4615385), wk =   0.0072827
        k(    8) = (   0.0000000   0.0769231   0.0769231), wk =   0.0018207
        k(    9) = (   0.0000000   0.0769231   0.1538462), wk =   0.0072827
        k(   10) = (   0.0000000   0.0769231   0.2307692), wk =   0.0072827
        k(   11) = (   0.0000000   0.0769231   0.3076923), wk =   0.0072827
        k(   12) = (   0.0000000   0.0769231   0.3846154), wk =   0.0072827
        k(   13) = (   0.0000000   0.0769231   0.4615385), wk =   0.0072827
        k(   14) = (   0.0000000   0.0769231  -0.4615385), wk =   0.0072827
        k(   15) = (   0.0000000   0.0769231  -0.3846154), wk =   0.0072827
        k(   16) = (   0.0000000   0.0769231  -0.3076923), wk =   0.0072827
        k(   17) = (   0.0000000   0.0769231  -0.2307692), wk =   0.0072827
        k(   18) = (   0.0000000   0.0769231  -0.1538462), wk =   0.0072827
        k(   19) = (   0.0000000   0.0769231  -0.0769231), wk =   0.0036413
        k(   20) = (   0.0000000   0.1538462   0.1538462), wk =   0.0018207
        k(   21) = (   0.0000000   0.1538462   0.2307692), wk =   0.0072827
        k(   22) = (   0.0000000   0.1538462   0.3076923), wk =   0.0072827
        k(   23) = (   0.0000000   0.1538462   0.3846154), wk =   0.0072827
        k(   24) = (   0.0000000   0.1538462   0.4615385), wk =   0.0072827
        k(   25) = (   0.0000000   0.1538462  -0.4615385), wk =   0.0072827
        k(   26) = (   0.0000000   0.1538462  -0.3846154), wk =   0.0072827
        k(   27) = (   0.0000000   0.1538462  -0.3076923), wk =   0.0072827
        k(   28) = (   0.0000000   0.1538462  -0.2307692), wk =   0.0072827
        k(   29) = (   0.0000000   0.1538462  -0.1538462), wk =   0.0036413
        k(   30) = (   0.0000000   0.2307692   0.2307692), wk =   0.0018207
        k(   31) = (   0.0000000   0.2307692   0.3076923), wk =   0.0072827
        k(   32) = (   0.0000000   0.2307692   0.3846154), wk =   0.0072827
        k(   33) = (   0.0000000   0.2307692   0.4615385), wk =   0.0072827
        k(   34) = (   0.0000000   0.2307692  -0.4615385), wk =   0.0072827
        k(   35) = (   0.0000000   0.2307692  -0.3846154), wk =   0.0072827
        k(   36) = (   0.0000000   0.2307692  -0.3076923), wk =   0.0072827
        k(   37) = (   0.0000000   0.2307692  -0.2307692), wk =   0.0036413
        k(   38) = (   0.0000000   0.3076923   0.3076923), wk =   0.0018207
        k(   39) = (   0.0000000   0.3076923   0.3846154), wk =   0.0072827
        k(   40) = (   0.0000000   0.3076923   0.4615385), wk =   0.0072827
        k(   41) = (   0.0000000   0.3076923  -0.4615385), wk =   0.0072827
        k(   42) = (   0.0000000   0.3076923  -0.3846154), wk =   0.0072827
        k(   43) = (   0.0000000   0.3076923  -0.3076923), wk =   0.0036413
        k(   44) = (   0.0000000   0.3846154   0.3846154), wk =   0.0018207
        k(   45) = (   0.0000000   0.3846154   0.4615385), wk =   0.0072827
        k(   46) = (   0.0000000   0.3846154  -0.4615385), wk =   0.0072827
        k(   47) = (   0.0000000   0.3846154  -0.3846154), wk =   0.0036413
        k(   48) = (   0.0000000   0.4615385   0.4615385), wk =   0.0018207
        k(   49) = (   0.0000000   0.4615385  -0.4615385), wk =   0.0036413
        k(   50) = (   0.0769231   0.0000000   0.0769231), wk =   0.0036413
        k(   51) = (   0.0769231   0.0000000   0.1538462), wk =   0.0145653
        k(   52) = (   0.0769231   0.0000000   0.2307692), wk =   0.0145653
        k(   53) = (   0.0769231   0.0000000   0.3076923), wk =   0.0145653
        k(   54) = (   0.0769231   0.0000000   0.3846154), wk =   0.0145653
        k(   55) = (   0.0769231   0.0000000   0.4615385), wk =   0.0145653
        k(   56) = (   0.0769231  -0.0000000  -0.4615385), wk =   0.0145653
        k(   57) = (   0.0769231   0.0000000  -0.3846154), wk =   0.0145653
        k(   58) = (   0.0769231   0.0000000  -0.3076923), wk =   0.0145653
        k(   59) = (   0.0769231   0.0000000  -0.2307692), wk =   0.0145653
        k(   60) = (   0.0769231  -0.0000000  -0.1538462), wk =   0.0145653
        k(   61) = (   0.0769231   0.0000000  -0.0769231), wk =   0.0072827
        k(   62) = (   0.0769231   0.1538462   0.2307692), wk =   0.0072827
        k(   63) = (   0.0769231   0.1538462   0.3076923), wk =   0.0145653
        k(   64) = (   0.0769231   0.1538462   0.3846154), wk =   0.0145653
        k(   65) = (   0.0769231   0.1538462   0.4615385), wk =   0.0145653
        k(   66) = (   0.0769231   0.1538462  -0.4615385), wk =   0.0145653
        k(   67) = (   0.0769231   0.1538462  -0.3846154), wk =   0.0145653
        k(   68) = (   0.0769231   0.1538462  -0.3076923), wk =   0.0145653
        k(   69) = (   0.0769231   0.1538462  -0.2307692), wk =   0.0145653
        k(   70) = (   0.0769231   0.1538462  -0.1538462), wk =   0.0145653
        k(   71) = (   0.0769231   0.1538462  -0.0769231), wk =   0.0072827
        k(   72) = (   0.0769231   0.2307692   0.3076923), wk =   0.0072827
        k(   73) = (   0.0769231   0.2307692   0.3846154), wk =   0.0145653
        k(   74) = (   0.0769231   0.2307692   0.4615385), wk =   0.0145653
        k(   75) = (   0.0769231   0.2307692  -0.4615385), wk =   0.0145653
        k(   76) = (   0.0769231   0.2307692  -0.3846154), wk =   0.0145653
        k(   77) = (   0.0769231   0.2307692  -0.3076923), wk =   0.0145653
        k(   78) = (   0.0769231   0.2307692  -0.2307692), wk =   0.0145653
        k(   79) = (   0.0769231   0.2307692  -0.1538462), wk =   0.0072827
        k(   80) = (   0.0769231   0.3076923   0.3846154), wk =   0.0072827
        k(   81) = (   0.0769231   0.3076923   0.4615385), wk =   0.0145653
        k(   82) = (   0.0769231   0.3076923  -0.4615385), wk =   0.0145653
        k(   83) = (   0.0769231   0.3076923  -0.3846154), wk =   0.0145653
        k(   84) = (   0.0769231   0.3076923  -0.3076923), wk =   0.0145653
        k(   85) = (   0.0769231   0.3076923  -0.2307692), wk =   0.0072827
        k(   86) = (   0.0769231   0.3846154   0.4615385), wk =   0.0072827
        k(   87) = (   0.0769231   0.3846154  -0.4615385), wk =   0.0145653
        k(   88) = (   0.0769231   0.3846154  -0.3846154), wk =   0.0145653
        k(   89) = (   0.0769231   0.3846154  -0.3076923), wk =   0.0072827
        k(   90) = (   0.0769231   0.4615385  -0.4615385), wk =   0.0072827
        k(   91) = (   0.0769231   0.4615385  -0.3846154), wk =   0.0072827
        k(   92) = (   0.1538462   0.0000000   0.1538462), wk =   0.0036413
        k(   93) = (   0.1538462   0.0000000   0.2307692), wk =   0.0145653
        k(   94) = (   0.1538462   0.0000000   0.3076923), wk =   0.0145653
        k(   95) = (   0.1538462   0.0000000   0.3846154), wk =   0.0145653
        k(   96) = (   0.1538462   0.0000000   0.4615385), wk =   0.0145653
        k(   97) = (   0.1538462   0.0000000  -0.4615385), wk =   0.0145653
        k(   98) = (   0.1538462   0.0000000  -0.3846154), wk =   0.0145653
        k(   99) = (   0.1538462  -0.0000000  -0.3076923), wk =   0.0145653
        k(  100) = (   0.1538462  -0.0000000  -0.2307692), wk =   0.0145653
        k(  101) = (   0.1538462   0.0000000  -0.1538462), wk =   0.0072827
        k(  102) = (   0.1538462   0.0769231   0.2307692), wk =   0.0072827
        k(  103) = (   0.1538462   0.0769231   0.3076923), wk =   0.0145653
        k(  104) = (   0.1538462   0.0769231   0.3846154), wk =   0.0145653
        k(  105) = (   0.1538462   0.0769231   0.4615385), wk =   0.0145653
        k(  106) = (   0.1538462   0.0769231  -0.4615385), wk =   0.0145653
        k(  107) = (   0.1538462   0.2307692   0.3846154), wk =   0.0072827
        k(  108) = (   0.1538462   0.2307692   0.4615385), wk =   0.0145653
        k(  109) = (   0.1538462   0.2307692  -0.4615385), wk =   0.0145653
        k(  110) = (   0.1538462   0.2307692  -0.3846154), wk =   0.0145653
        k(  111) = (   0.1538462   0.2307692  -0.3076923), wk =   0.0145653
        k(  112) = (   0.1538462   0.2307692  -0.2307692), wk =   0.0145653
        k(  113) = (   0.1538462   0.2307692  -0.1538462), wk =   0.0145653
        k(  114) = (   0.1538462   0.2307692  -0.0769231), wk =   0.0072827
        k(  115) = (   0.1538462   0.3076923   0.4615385), wk =   0.0072827
        k(  116) = (   0.1538462   0.3076923  -0.4615385), wk =   0.0145653
        k(  117) = (   0.1538462   0.3076923  -0.3846154), wk =   0.0145653
        k(  118) = (   0.1538462   0.3076923  -0.3076923), wk =   0.0145653
        k(  119) = (   0.1538462   0.3076923  -0.2307692), wk =   0.0145653
        k(  120) = (   0.1538462   0.3076923  -0.1538462), wk =   0.0072827
        k(  121) = (   0.1538462   0.3846154  -0.4615385), wk =   0.0072827
        k(  122) = (   0.1538462   0.3846154  -0.3846154), wk =   0.0145653
        k(  123) = (   0.1538462   0.3846154  -0.3076923), wk =   0.0145653
        k(  124) = (   0.1538462   0.3846154  -0.2307692), wk =   0.0072827
        k(  125) = (   0.1538462   0.4615385  -0.3846154), wk =   0.0072827
        k(  126) = (   0.1538462   0.4615385  -0.3076923), wk =   0.0072827
        k(  127) = (   0.2307692   0.0000000   0.2307692), wk =   0.0036413
        k(  128) = (   0.2307692  -0.0000000   0.3076923), wk =   0.0145653
        k(  129) = (   0.2307692   0.0000000   0.3846154), wk =   0.0145653
        k(  130) = (   0.2307692   0.0000000   0.4615385), wk =   0.0145653
        k(  131) = (   0.2307692   0.0000000  -0.4615385), wk =   0.0145653
        k(  132) = (   0.2307692  -0.0000000  -0.3846154), wk =   0.0145653
        k(  133) = (   0.2307692  -0.0000000  -0.3076923), wk =   0.0145653
        k(  134) = (   0.2307692   0.0000000  -0.2307692), wk =   0.0072827
        k(  135) = (   0.2307692   0.0769231   0.3076923), wk =   0.0072827
        k(  136) = (   0.2307692   0.0769231   0.3846154), wk =   0.0145653
        k(  137) = (   0.2307692   0.0769231   0.4615385), wk =   0.0145653
        k(  138) = (   0.2307692   0.0769231  -0.4615385), wk =   0.0145653
        k(  139) = (   0.2307692   0.0769231  -0.3846154), wk =   0.0145653
        k(  140) = (   0.2307692   0.0769231  -0.3076923), wk =   0.0145653
        k(  141) = (   0.2307692   0.0769231  -0.2307692), wk =   0.0145653
        k(  142) = (   0.2307692   0.0769231  -0.1538462), wk =   0.0072827
        k(  143) = (   0.2307692   0.3076923  -0.4615385), wk =   0.0072827
        k(  144) = (   0.2307692   0.3076923  -0.3846154), wk =   0.0145653
        k(  145) = (   0.2307692   0.3076923  -0.3076923), wk =   0.0145653
        k(  146) = (   0.2307692   0.3076923  -0.2307692), wk =   0.0145653
        k(  147) = (   0.2307692   0.3076923  -0.1538462), wk =   0.0145653
        k(  148) = (   0.2307692   0.3076923  -0.0769231), wk =   0.0072827
        k(  149) = (   0.2307692   0.3846154  -0.3846154), wk =   0.0072827
        k(  150) = (   0.2307692   0.3846154  -0.3076923), wk =   0.0145653
        k(  151) = (   0.2307692   0.3846154  -0.2307692), wk =   0.0145653
        k(  152) = (   0.2307692   0.3846154  -0.1538462), wk =   0.0072827
        k(  153) = (   0.2307692   0.4615385  -0.3076923), wk =   0.0072827
        k(  154) = (   0.2307692   0.4615385  -0.2307692), wk =   0.0072827
        k(  155) = (   0.3076923   0.0000000   0.3076923), wk =   0.0036413
        k(  156) = (   0.3076923   0.0000000   0.3846154), wk =   0.0145653
        k(  157) = (   0.3076923   0.0000000   0.4615385), wk =   0.0145653
        k(  158) = (   0.3076923   0.0000000  -0.4615385), wk =   0.0145653
        k(  159) = (   0.3076923   0.0000000  -0.3846154), wk =   0.0145653
        k(  160) = (   0.3076923   0.0000000  -0.3076923), wk =   0.0072827
        k(  161) = (   0.3076923   0.0769231   0.3846154), wk =   0.0072827
        k(  162) = (   0.3076923   0.0769231   0.4615385), wk =   0.0145653
        k(  163) = (   0.3076923   0.0769231  -0.4615385), wk =   0.0145653
        k(  164) = (   0.3076923   0.0769231  -0.3846154), wk =   0.0145653
        k(  165) = (   0.3076923   0.0769231  -0.3076923), wk =   0.0145653
        k(  166) = (   0.3076923   0.0769231  -0.2307692), wk =   0.0072827
        k(  167) = (   0.3076923   0.1538462   0.4615385), wk =   0.0072827
        k(  168) = (   0.3076923   0.1538462  -0.4615385), wk =   0.0145653
        k(  169) = (   0.3076923   0.1538462  -0.3846154), wk =   0.0145653
        k(  170) = (   0.3076923   0.3846154  -0.3076923), wk =   0.0072827
        k(  171) = (   0.3076923   0.3846154  -0.2307692), wk =   0.0145653
        k(  172) = (   0.3076923   0.3846154  -0.1538462), wk =   0.0145653
        k(  173) = (   0.3076923   0.3846154  -0.0769231), wk =   0.0072827
        k(  174) = (   0.3076923   0.4615385  -0.2307692), wk =   0.0072827
        k(  175) = (   0.3076923   0.4615385  -0.1538462), wk =   0.0072827
        k(  176) = (   0.3846154   0.0000000   0.3846154), wk =   0.0036413
        k(  177) = (   0.3846154   0.0000000   0.4615385), wk =   0.0145653
        k(  178) = (   0.3846154  -0.0000000  -0.4615385), wk =   0.0145653
        k(  179) = (   0.3846154  -0.0000000  -0.3846154), wk =   0.0072827
        k(  180) = (   0.3846154   0.0769231   0.4615385), wk =   0.0072827
        k(  181) = (   0.3846154   0.0769231  -0.4615385), wk =   0.0145653
        k(  182) = (   0.3846154   0.0769231  -0.3846154), wk =   0.0145653
        k(  183) = (   0.3846154   0.0769231  -0.3076923), wk =   0.0072827
        k(  184) = (   0.3846154   0.1538462  -0.4615385), wk =   0.0072827
        k(  185) = (   0.3846154   0.1538462  -0.3846154), wk =   0.0145653
        k(  186) = (   0.3846154   0.1538462  -0.3076923), wk =   0.0145653
        k(  187) = (   0.3846154   0.1538462  -0.2307692), wk =   0.0072827
        k(  188) = (   0.3846154   0.4615385  -0.1538462), wk =   0.0072827
        k(  189) = (   0.3846154   0.4615385  -0.0769231), wk =   0.0072827
        k(  190) = (   0.4615385   0.0000000   0.4615385), wk =   0.0036413
        k(  191) = (   0.4615385  -0.0000000  -0.4615385), wk =   0.0072827
        k(  192) = (   0.4615385   0.0769231  -0.4615385), wk =   0.0072827
        k(  193) = (   0.4615385   0.0769231  -0.3846154), wk =   0.0072827
        k(  194) = (   0.4615385   0.1538462  -0.3846154), wk =   0.0072827
        k(  195) = (   0.4615385   0.1538462  -0.3076923), wk =   0.0072827
        k(  196) = (   0.4615385   0.2307692  -0.3076923), wk =   0.0072827

     Dense  grid:    35427 G-vectors     FFT dimensions: (  48,  48,  48)

     Smooth grid:    12539 G-vectors     FFT dimensions: (  36,  36,  36)

     Dynamical RAM for                 wfc:       0.43 MB

     Dynamical RAM for     wfc (w. buffer):      84.62 MB

     Dynamical RAM for           str. fact:       0.54 MB

     Dynamical RAM for           local pot:       0.00 MB

     Dynamical RAM for          nlocal pot:       0.86 MB

     Dynamical RAM for                qrad:       1.52 MB

     Dynamical RAM for          rho,v,vnew:       4.15 MB

     Dynamical RAM for               rhoin:       1.38 MB

     Dynamical RAM for            rho*nmix:       8.65 MB

     Dynamical RAM for           G-vectors:       2.12 MB

     Dynamical RAM for          h,s,v(r/c):       0.06 MB

     Dynamical RAM for          <psi|beta>:       0.01 MB

     Dynamical RAM for                 psi:       0.86 MB

     Dynamical RAM for                hpsi:       0.86 MB

     Dynamical RAM for                spsi:       0.86 MB

     Dynamical RAM for      wfcinit/wfcrot:       0.87 MB

     Dynamical RAM for           addusdens:     101.63 MB

     Dynamical RAM for          addusforce:     102.99 MB

     Dynamical RAM for         addusstress:     108.66 MB

     Estimated static dynamical RAM per process >     100.51 MB

     Estimated max dynamical RAM per process >     217.81 MB

     Initial potential from superposition of free atoms

     starting charge      27.9984, renormalised to      28.0000
     Starting wfcs are   18 randomized atomic wfcs

     total cpu time spent up to now is       10.4 secs

     Self-consistent Calculation

     iteration #  1     ecut=    45.00 Ry     beta= 0.40
     Davidson diagonalization with overlap

---- Real-time Memory Report at c_bands before calling an iterative solver
           147 MiB given to the printing process from OS
             0 MiB allocation reported by mallinfo(arena+hblkhd)
           386 MiB available memory on the node where the printing process lives
------------------
     ethr =  1.00E-02,  avg # of iterations =  3.3

     Threshold (ethr) on eigenvalues was too large:
     Diagonalizing with lowered threshold

     Davidson diagonalization with overlap

---- Real-time Memory Report at c_bands before calling an iterative solver
           235 MiB given to the printing process from OS
             0 MiB allocation reported by mallinfo(arena+hblkhd)
           344 MiB available memory on the node where the printing process lives
------------------
     ethr =  1.12E-04,  avg # of iterations =  2.7

     total cpu time spent up to now is       70.2 secs

     total energy              =    -426.38168512 Ry
     estimated scf accuracy    <       0.03256666 Ry

     iteration #  2     ecut=    45.00 Ry     beta= 0.40
     Davidson diagonalization with overlap

---- Real-time Memory Report at c_bands before calling an iterative solver
           242 MiB given to the printing process from OS
             0 MiB allocation reported by mallinfo(arena+hblkhd)
           374 MiB available memory on the node where the printing process lives
------------------
     ethr =  1.16E-04,  avg # of iterations =  1.0

     total cpu time spent up to now is       95.7 secs

     total energy              =    -426.37951731 Ry
     estimated scf accuracy    <       0.00945466 Ry

     iteration #  3     ecut=    45.00 Ry     beta= 0.40
     Davidson diagonalization with overlap

---- Real-time Memory Report at c_bands before calling an iterative solver
           242 MiB given to the printing process from OS
             0 MiB allocation reported by mallinfo(arena+hblkhd)
           296 MiB available memory on the node where the printing process lives
------------------
     ethr =  3.38E-05,  avg # of iterations =  1.9

     total cpu time spent up to now is      121.6 secs

     total energy              =    -426.37997291 Ry
     estimated scf accuracy    <       0.00009194 Ry

     iteration #  4     ecut=    45.00 Ry     beta= 0.40
     Davidson diagonalization with overlap

---- Real-time Memory Report at c_bands before calling an iterative solver
           243 MiB given to the printing process from OS
             0 MiB allocation reported by mallinfo(arena+hblkhd)
           333 MiB available memory on the node where the printing process lives
------------------
     ethr =  3.28E-07,  avg # of iterations =  3.1

     total cpu time spent up to now is      156.0 secs

     total energy              =    -426.37999181 Ry
     estimated scf accuracy    <       0.00000465 Ry

     iteration #  5     ecut=    45.00 Ry     beta= 0.40
     Davidson diagonalization with overlap

---- Real-time Memory Report at c_bands before calling an iterative solver
           243 MiB given to the printing process from OS
             0 MiB allocation reported by mallinfo(arena+hblkhd)
           333 MiB available memory on the node where the printing process lives
------------------
     ethr =  1.66E-08,  avg # of iterations =  2.0

     total cpu time spent up to now is      190.4 secs

     total energy              =    -426.37999291 Ry
     estimated scf accuracy    <       0.00000035 Ry

     iteration #  6     ecut=    45.00 Ry     beta= 0.40
     Davidson diagonalization with overlap

---- Real-time Memory Report at c_bands before calling an iterative solver
           243 MiB given to the printing process from OS
             0 MiB allocation reported by mallinfo(arena+hblkhd)
           371 MiB available memory on the node where the printing process lives
------------------
     ethr =  1.27E-09,  avg # of iterations =  2.0

     total cpu time spent up to now is      217.9 secs

     total energy              =    -426.37999294 Ry
     estimated scf accuracy    <       0.00000005 Ry

     iteration #  7     ecut=    45.00 Ry     beta= 0.40
     Davidson diagonalization with overlap

---- Real-time Memory Report at c_bands before calling an iterative solver
           244 MiB given to the printing process from OS
             0 MiB allocation reported by mallinfo(arena+hblkhd)
           287 MiB available memory on the node where the printing process lives
------------------
     ethr =  1.96E-10,  avg # of iterations =  2.0

     total cpu time spent up to now is      249.5 secs

     total energy              =    -426.37999296 Ry
     estimated scf accuracy    <          5.2E-09 Ry

     iteration #  8     ecut=    45.00 Ry     beta= 0.40
     Davidson diagonalization with overlap

---- Real-time Memory Report at c_bands before calling an iterative solver
           244 MiB given to the printing process from OS
             0 MiB allocation reported by mallinfo(arena+hblkhd)
           319 MiB available memory on the node where the printing process lives
------------------
     ethr =  1.86E-11,  avg # of iterations =  2.0

     total cpu time spent up to now is      280.6 secs

     total energy              =    -426.37999296 Ry
     estimated scf accuracy    <          9.4E-10 Ry

     iteration #  9     ecut=    45.00 Ry     beta= 0.40
     Davidson diagonalization with overlap

---- Real-time Memory Report at c_bands before calling an iterative solver
           245 MiB given to the printing process from OS
             0 MiB allocation reported by mallinfo(arena+hblkhd)
           310 MiB available memory on the node where the printing process lives
------------------
     ethr =  3.37E-12,  avg # of iterations =  2.0

     total cpu time spent up to now is      310.0 secs

     End of self-consistent calculation

          k = 0.0000 0.0000 0.0000 (  1551 PWs)   bands (ev):

   -16.5293 -16.5147 -16.5147 -16.4872 -16.4799 -16.2827 -16.2827 -16.2697
   -16.2628 -16.2569  -4.4790   8.1573   8.1573   8.2078   8.5310  10.6584
    10.9053  10.9053

     occupation numbers 
     1.0000   1.0000   1.0000   1.0000   1.0000   1.0000   1.0000   1.0000
     1.0000   1.0000   1.0000   0.7856   0.7856   0.6514   0.0497   0.0000
     0.0000   0.0000

          k = 0.0573 0.0544-0.0544 (  1548 PWs)   bands (ev):

   -16.5309 -16.5187 -16.5159 -16.4816 -16.4752 -16.2878 -16.2858 -16.2724
   -16.2566 -16.2547  -4.4067   6.8266   8.0079   8.2676   9.1608  10.8533
    11.0898  11.2161

     occupation numbers 
     1.0000   1.0000   1.0000   1.0000   1.0000   1.0000   1.0000   1.0000
     1.0000   1.0000   1.0000   1.0000   1.0472   0.4869   0.0000   0.0000
     0.0000   0.0000

          k = 0.1145 0.1088-0.1088 (  1552 PWs)   bands (ev):

   -16.5360 -16.5254 -16.5157 -16.4706 -16.4651 -16.2974 -16.2924 -16.2762
   -16.2506 -16.2477  -4.1920   5.3355   7.6731   7.9674   9.2010  11.3383
    11.4825  12.2051

     occupation numbers 
     1.0000   1.0000   1.0000   1.0000   1.0000   1.0000   1.0000   1.0000
     1.0000   1.0000   1.0000   1.0000   1.0191   1.0731   0.0000   0.0000
     0.0000   0.0000

          k = 0.1718 0.1632-0.1632 (  1547 PWs)   bands (ev):

   -16.5420 -16.5308 -16.5129 -16.4596 -16.4548 -16.3064 -16.2989 -16.2808
   -16.2471 -16.2399  -3.8431   3.8932   7.3112   7.6506   8.9312  11.8055
    11.8088  13.5029

     occupation numbers 
     1.0000   1.0000   1.0000   1.0000   1.0000   1.0000   1.0000   1.0000
     1.0000   1.0000   1.0000   1.0000   1.0001   1.0149   0.0001   0.0000
     0.0000   0.0000

          k = 0.2290 0.2176-0.2176 (  1555 PWs)   bands (ev):

   -16.5468 -16.5340 -16.5092 -16.4511 -16.4469 -16.3133 -16.3034 -16.2855
   -16.2451 -16.2340  -3.3813   2.5801   7.0042   7.3884   8.6581  11.9154
    12.0972  14.8498

     occupation numbers 
     1.0000   1.0000   1.0000   1.0000   1.0000   1.0000   1.0000   1.0000
     1.0000   1.0000   1.0000   1.0000   1.0000   1.0003   0.0089   0.0000
     0.0000   0.0000

          k = 0.2863 0.2720-0.2720 (  1561 PWs)   bands (ev):

   -16.5497 -16.5355 -16.5059 -16.4458 -16.4421 -16.3174 -16.3056 -16.2892
   -16.2445 -16.2301  -2.8638   1.4827   6.7876   7.2067   8.4590  11.8829
    12.1915  15.4163

     occupation numbers 
     1.0000   1.0000   1.0000   1.0000   1.0000   1.0000   1.0000   1.0000
     1.0000   1.0000   1.0000   1.0000   1.0000   1.0000   0.1099   0.0000
     0.0000   0.0000

          k = 0.3435 0.3264-0.3264 (  1558 PWs)   bands (ev):

   -16.5511 -16.5359 -16.5040 -16.4436 -16.4400 -16.3193 -16.3062 -16.2913
   -16.2444 -16.2283  -2.4537   0.7794   6.6763   7.1145   8.3563  11.8337
    12.1986  15.2994

     occupation numbers 
     1.0000   1.0000   1.0000   1.0000   1.0000   1.0000   1.0000   1.0000
     1.0000   1.0000   1.0000   1.0000   1.0000   1.0000   0.2726   0.0000
     0.0000   0.0000

          k = 0.1145 0.0000 0.0000 (  1551 PWs)   bands (ev):

   -16.5301 -16.5166 -16.5166 -16.4837 -16.4730 -16.2862 -16.2797 -16.2797
   -16.2600 -16.2539  -4.3771   6.8974   7.7476   7.7476   9.8034  10.3177
    11.4215  11.4215

     occupation numbers 
     1.0000   1.0000   1.0000   1.0000   1.0000   1.0000   1.0000   1.0000
     1.0000   1.0000   1.0000   1.0000   1.0384   1.0384   0.0000   0.0000
     0.0000   0.0000

          k = 0.1718 0.0544-0.0544 (  1553 PWs)   bands (ev):

   -16.5332 -16.5208 -16.5167 -16.4763 -16.4638 -16.2984 -16.2811 -16.2788
   -16.2597 -16.2485  -4.2041   5.7092   7.3716   7.5632  10.0225  10.3790
    11.9087  12.2127

     occupation numbers 
     1.0000   1.0000   1.0000   1.0000   1.0000   1.0000   1.0000   1.0000
     1.0000   1.0000   1.0000   1.0000   1.0002   1.0049   0.0000   0.0000
     0.0000   0.0000

          k = 0.2290 0.1088-0.1088 (  1552 PWs)   bands (ev):

   -16.5400 -16.5263 -16.5125 -16.4659 -16.4529 -16.3091 -16.2874 -16.2832
   -16.2555 -16.2409  -3.8940   4.3040   7.0114   7.2812   9.7666  10.8940
    12.2947  13.2250

     occupation numbers 
     1.0000   1.0000   1.0000   1.0000   1.0000   1.0000   1.0000   1.0000
     1.0000   1.0000   1.0000   1.0000   1.0000   1.0000   0.0000   0.0000
     0.0000   0.0000

          k = 0.2863 0.1632-0.1632 (  1554 PWs)   bands (ev):

   -16.5467 -16.5306 -16.5065 -16.4561 -16.4440 -16.3165 -16.2942 -16.2903
   -16.2515 -16.2336  -3.4626   2.9668   6.7303   6.9563   9.4690  11.4590
    12.4180  13.9908

     occupation numbers 
     1.0000   1.0000   1.0000   1.0000   1.0000   1.0000   1.0000   1.0000
     1.0000   1.0000   1.0000   1.0000   1.0000   1.0000   0.0000   0.0000
     0.0000   0.0000

          k = 0.3435 0.2176-0.2176 (  1565 PWs)   bands (ev):

   -16.5517 -16.5336 -16.5008 -16.4482 -16.4388 -16.3198 -16.3003 -16.2972
   -16.2481 -16.2279  -2.9518   1.8007   6.5558   6.6765   9.2208  11.8182
    12.3328  14.6779

     occupation numbers 
     1.0000   1.0000   1.0000   1.0000   1.0000   1.0000   1.0000   1.0000
     1.0000   1.0000   1.0000   1.0000   1.0000   1.0000   0.0000   0.0000
     0.0000   0.0000

          k = 0.4008 0.2720-0.2720 (  1569 PWs)   bands (ev):

   -16.5547 -16.5358 -16.4971 -16.4424 -16.4375 -16.3201 -16.3059 -16.3011
   -16.2450 -16.2246  -2.4808   0.9500   6.4754   6.4986   9.0579  11.9614
    12.1854  15.3297

     occupation numbers 
     1.0000   1.0000   1.0000   1.0000   1.0000   1.0000   1.0000   1.0000
     1.0000   1.0000   1.0000   1.0000   1.0000   1.0000   0.0000   0.0000
     0.0000   0.0000

          k =-0.2863-0.3807 0.3807 (  1570 PWs)   bands (ev):

   -16.5556 -16.5376 -16.4966 -16.4386 -16.4385 -16.3203 -16.3112 -16.2992
   -16.2421 -16.2239  -2.3312   0.7068   6.3670   6.5600   8.9962  12.0418
    12.0664  15.6226

     occupation numbers 
     1.0000   1.0000   1.0000   1.0000   1.0000   1.0000   1.0000   1.0000
     1.0000   1.0000   1.0000   1.0000   1.0000   1.0000   0.0000   0.0000
     0.0000   0.0000

          k =-0.2290-0.3264 0.3264 (  1562 PWs)   bands (ev):

   -16.5545 -16.5388 -16.4996 -16.4411 -16.4373 -16.3203 -16.3149 -16.2925
   -16.2398 -16.2259  -2.6518   1.2203   6.3605   6.7345   9.0406  11.9955
    12.1416  15.6510

     occupation numbers 
     1.0000   1.0000   1.0000   1.0000   1.0000   1.0000   1.0000   1.0000
     1.0000   1.0000   1.0000   1.0000   1.0000   1.0000   0.0000   0.0000
     0.0000   0.0000

          k =-0.1718-0.2720 0.2720 (  1559 PWs)   bands (ev):

   -16.5513 -16.5388 -16.5049 -16.4452 -16.4402 -16.3184 -16.3155 -16.2837
   -16.2389 -16.2306  -3.1636   2.2025   6.4656   7.0087   9.1855  11.9267
    12.2349  14.9256

     occupation numbers 
     1.0000   1.0000   1.0000   1.0000   1.0000   1.0000   1.0000   1.0000
     1.0000   1.0000   1.0000   1.0000   1.0000   1.0000   0.0000   0.0000
     0.0000   0.0000

          k =-0.1145-0.2176 0.2176 (  1555 PWs)   bands (ev):

   -16.5462 -16.5367 -16.5109 -16.4515 -16.4478 -16.3138 -16.3118 -16.2749
   -16.2399 -16.2377  -3.6511   3.4147   6.6947   7.3562   9.4060  11.7556
    12.1731  13.7762

     occupation numbers 
     1.0000   1.0000   1.0000   1.0000   1.0000   1.0000   1.0000   1.0000
     1.0000   1.0000   1.0000   1.0000   1.0000   1.0001   0.0000   0.0000
     0.0000   0.0000

          k =-0.0573-0.1632 0.1632 (  1552 PWs)   bands (ev):

   -16.5398 -16.5323 -16.5157 -16.4599 -16.4590 -16.3065 -16.3044 -16.2674
   -16.2469 -16.2431  -4.0365   4.7229   7.0726   7.7224   9.6206  11.4293
    11.7716  12.7331

     occupation numbers 
     1.0000   1.0000   1.0000   1.0000   1.0000   1.0000   1.0000   1.0000
     1.0000   1.0000   1.0000   1.0000   1.0000   1.0309   0.0000   0.0000
     0.0000   0.0000

          k = 0.0000-0.1088 0.1088 (  1537 PWs)   bands (ev):

   -16.5339 -16.5256 -16.5173 -16.4715 -16.4690 -16.2973 -16.2951 -16.2637
   -16.2563 -16.2482  -4.2920   5.9558   7.6569   7.9932   9.5639  11.1149
    11.2905  11.7578

     occupation numbers 
     1.0000   1.0000   1.0000   1.0000   1.0000   1.0000   1.0000   1.0000
     1.0000   1.0000   1.0000   1.0000   1.0160   1.0587   0.0000   0.0000
     0.0000   0.0000

          k = 0.2290 0.0000 0.0000 (  1555 PWs)   bands (ev):

   -16.5297 -16.5216 -16.5216 -16.4733 -16.4553 -16.3119 -16.2714 -16.2714
   -16.2694 -16.2504  -4.0729   5.4646   6.9777   6.9777   9.6583  10.9444
    12.5067  12.5067

     occupation numbers 
     1.0000   1.0000   1.0000   1.0000   1.0000   1.0000   1.0000   1.0000
     1.0000   1.0000   1.0000   1.0000   1.0000   1.0000   0.0000   0.0000
     0.0000   0.0000

          k = 0.2863 0.0544-0.0544 (  1568 PWs)   bands (ev):

   -16.5353 -16.5256 -16.5173 -16.4644 -16.4438 -16.3254 -16.2803 -16.2727
   -16.2623 -16.2461  -3.8024   4.4667   6.6116   6.6361   9.6252  11.0338
    13.0289  13.1585

     occupation numbers 
     1.0000   1.0000   1.0000   1.0000   1.0000   1.0000   1.0000   1.0000
     1.0000   1.0000   1.0000   1.0000   1.0000   1.0000   0.0000   0.0000
     0.0000   0.0000

          k = 0.3435 0.1088-0.1088 (  1576 PWs)   bands (ev):

   -16.5448 -16.5301 -16.5072 -16.4540 -16.4337 -16.3351 -16.2906 -16.2830
   -16.2550 -16.2364  -3.4048   3.2582   6.2533   6.3331   9.8313  11.1259
    13.2629  13.3207

     occupation numbers 
     1.0000   1.0000   1.0000   1.0000   1.0000   1.0000   1.0000   1.0000
     1.0000   1.0000   1.0000   1.0000   1.0000   1.0000   0.0000   0.0000
     0.0000   0.0000

          k = 0.4008 0.1632-0.1632 (  1569 PWs)   bands (ev):

   -16.5532 -16.5339 -16.4960 -16.4441 -16.4279 -16.3389 -16.3007 -16.2958
   -16.2488 -16.2270  -2.9103   2.1059   5.8789   6.1695   9.7923  11.6121
    13.2035  13.3881

     occupation numbers 
     1.0000   1.0000   1.0000   1.0000   1.0000   1.0000   1.0000   1.0000
     1.0000   1.0000   1.0000   1.0000   1.0000   1.0000   0.0000   0.0000
     0.0000   0.0000

          k = 0.4580 0.2176-0.2176 (  1568 PWs)   bands (ev):

   -16.5594 -16.5372 -16.4866 -16.4353 -16.4278 -16.3357 -16.3105 -16.3078
   -16.2434 -16.2200  -2.4038   1.1710   5.5744   6.1319   9.6639  11.9827
    13.0114  13.9824

     occupation numbers 
     1.0000   1.0000   1.0000   1.0000   1.0000   1.0000   1.0000   1.0000
     1.0000   1.0000   1.0000   1.0000   1.0000   1.0000   0.0000   0.0000
     0.0000   0.0000

          k =-0.2290-0.4351 0.4351 (  1574 PWs)   bands (ev):

   -16.5628 -16.5400 -16.4816 -16.4319 -16.4283 -16.3267 -16.3197 -16.3163
   -16.2389 -16.2164  -2.1206   0.7163   5.3691   6.2215   9.6023  12.1041
    12.8092  15.0697

     occupation numbers 
     1.0000   1.0000   1.0000   1.0000   1.0000   1.0000   1.0000   1.0000
     1.0000   1.0000   1.0000   1.0000   1.0000   1.0000   0.0000   0.0000
     0.0000   0.0000

          k =-0.1718-0.3807 0.3807 (  1568 PWs)   bands (ev):

   -16.5630 -16.5421 -16.4831 -16.4372 -16.4243 -16.3266 -16.3229 -16.3115
   -16.2356 -16.2167  -2.3258   1.0113   5.2843   6.4308   9.6437  12.2076
    12.6343  15.7700

     occupation numbers 
     1.0000   1.0000   1.0000   1.0000   1.0000   1.0000   1.0000   1.0000
     1.0000   1.0000   1.0000   1.0000   1.0000   1.0000   0.0000   0.0000
     0.0000   0.0000

          k =-0.1145-0.3264 0.3264 (  1565 PWs)   bands (ev):

   -16.5601 -16.5430 -16.4907 -16.4419 -16.4256 -16.3288 -16.3234 -16.2966
   -16.2341 -16.2210  -2.8174   1.8372   5.3471   6.7420   9.7777  12.3595
    12.4481  14.7004

     occupation numbers 
     1.0000   1.0000   1.0000   1.0000   1.0000   1.0000   1.0000   1.0000
     1.0000   1.0000   1.0000   1.0000   1.0000   1.0000   0.0000   0.0000
     0.0000   0.0000

          k =-0.0573-0.2720 0.2720 (  1562 PWs)   bands (ev):

   -16.5543 -16.5418 -16.5012 -16.4468 -16.4333 -16.3247 -16.3207 -16.2820
   -16.2347 -16.2290  -3.3244   2.8715   5.6062   7.1193   9.9485  12.1534
    12.4368  13.6254

     occupation numbers 
     1.0000   1.0000   1.0000   1.0000   1.0000   1.0000   1.0000   1.0000
     1.0000   1.0000   1.0000   1.0000   1.0000   1.0000   0.0000   0.0000
     0.0000   0.0000

          k = 0.0000-0.2176 0.2176 (  1548 PWs)   bands (ev):

   -16.5467 -16.5381 -16.5106 -16.4529 -16.4455 -16.3157 -16.3149 -16.2705
   -16.2392 -16.2377  -3.7428   3.8936   6.1564   7.4905   9.9905  11.7391
    12.0716  13.1831

     occupation numbers 
     1.0000   1.0000   1.0000   1.0000   1.0000   1.0000   1.0000   1.0000
     1.0000   1.0000   1.0000   1.0000   1.0000   1.0016   0.0000   0.0000
     0.0000   0.0000

          k = 0.3435 0.0000 0.0000 (  1563 PWs)   bands (ev):

   -16.5282 -16.5282 -16.5248 -16.4567 -16.4308 -16.3427 -16.2844 -16.2600
   -16.2600 -16.2553  -3.5712   4.0673   6.2343   6.2343   9.0524  11.1583
    13.7680  13.7680

     occupation numbers 
     1.0000   1.0000   1.0000   1.0000   1.0000   1.0000   1.0000   1.0000
     1.0000   1.0000   1.0000   1.0000   1.0000   1.0000   0.0000   0.0000
     0.0000   0.0000

          k = 0.4008 0.0544-0.0544 (  1573 PWs)   bands (ev):

   -16.5387 -16.5319 -16.5125 -16.4462 -16.4183 -16.3569 -16.2949 -16.2718
   -16.2532 -16.2440  -3.2089   3.2118   5.8370   5.9434   9.1004  10.9308
    13.9620  14.2420

     occupation numbers 
     1.0000   1.0000   1.0000   1.0000   1.0000   1.0000   1.0000   1.0000
     1.0000   1.0000   1.0000   1.0000   1.0000   1.0000   0.0000   0.0000
     0.0000   0.0000

          k = 0.4580 0.1088-0.1088 (  1572 PWs)   bands (ev):

   -16.5499 -16.5356 -16.4968 -16.4349 -16.4098 -16.3650 -16.3066 -16.2891
   -16.2466 -16.2307  -2.7374   2.2231   5.3561   5.7694   9.3888  11.0687
    13.7151  14.3187

     occupation numbers 
     1.0000   1.0000   1.0000   1.0000   1.0000   1.0000   1.0000   1.0000
     1.0000   1.0000   1.0000   1.0000   1.0000   1.0000   0.0000   0.0000
     0.0000   0.0000

          k = 0.5153 0.1632-0.1632 (  1575 PWs)   bands (ev):

   -16.5596 -16.5391 -16.4816 -16.4242 -16.4087 -16.3643 -16.3188 -16.3059
   -16.2407 -16.2197  -2.2158   1.3105   4.9190   5.7254   9.4711  11.8621
    13.4980  14.1457

     occupation numbers 
     1.0000   1.0000   1.0000   1.0000   1.0000   1.0000   1.0000   1.0000
     1.0000   1.0000   1.0000   1.0000   1.0000   1.0000   0.0000   0.0000
     0.0000   0.0000

          k =-0.1718-0.4895 0.4895 (  1574 PWs)   bands (ev):

   -16.5663 -16.5421 -16.4705 -16.4152 -16.4147 -16.3550 -16.3305 -16.3186
   -16.2360 -16.2124  -1.8256   0.7175   4.5977   5.8136   9.4992  12.8174
    13.6359  13.8956

     occupation numbers 
     1.0000   1.0000   1.0000   1.0000   1.0000   1.0000   1.0000   1.0000
     1.0000   1.0000   1.0000   1.0000   1.0000   1.0000   0.0000   0.0000
     0.0000   0.0000

          k =-0.1145-0.4351 0.4351 (  1561 PWs)   bands (ev):

   -16.5691 -16.5444 -16.4668 -16.4262 -16.4087 -16.3395 -16.3394 -16.3247
   -16.2327 -16.2096  -1.9009   0.7920   4.4355   6.0274   9.6095  13.0426
    13.6268  14.7890

     occupation numbers 
     1.0000   1.0000   1.0000   1.0000   1.0000   1.0000   1.0000   1.0000
     1.0000   1.0000   1.0000   1.0000   1.0000   1.0000   0.0000   0.0000
     0.0000   0.0000

          k =-0.0573-0.3807 0.3807 (  1562 PWs)   bands (ev):

   -16.5678 -16.5455 -16.4729 -16.4362 -16.4098 -16.3418 -16.3280 -16.3177
   -16.2312 -16.2119  -2.3604   1.4223   4.4878   6.3483   9.8075  13.1423
    13.2846  14.5261

     occupation numbers 
     1.0000   1.0000   1.0000   1.0000   1.0000   1.0000   1.0000   1.0000
     1.0000   1.0000   1.0000   1.0000   1.0000   1.0000   0.0000   0.0000
     0.0000   0.0000

          k = 0.0000-0.3264 0.3264 (  1572 PWs)   bands (ev):

   -16.5624 -16.5448 -16.4866 -16.4421 -16.4193 -16.3358 -16.3254 -16.2983
   -16.2318 -16.2189  -2.8797   2.1956   4.8476   6.7379  10.0054  12.7631
    13.2015  13.4160

     occupation numbers 
     1.0000   1.0000   1.0000   1.0000   1.0000   1.0000   1.0000   1.0000
     1.0000   1.0000   1.0000   1.0000   1.0000   1.0000   0.0000   0.0000
     0.0000   0.0000

          k = 0.4580 0.0000 0.0000 (  1563 PWs)   bands (ev):

   -16.5349 -16.5349 -16.5136 -16.4351 -16.4023 -16.3762 -16.3044 -16.2680
   -16.2482 -16.2482  -2.8808   2.7086   5.6335   5.6335   8.6342  10.4215
    15.0915  15.0915

     occupation numbers 
     1.0000   1.0000   1.0000   1.0000   1.0000   1.0000   1.0000   1.0000
     1.0000   1.0000   1.0000   1.0000   1.0000   1.0000   0.0127   0.0000
     0.0000   0.0000

          k = 0.5153 0.0544-0.0544 (  1571 PWs)   bands (ev):

   -16.5431 -16.5379 -16.4997 -16.4230 -16.3910 -16.3887 -16.3164 -16.2836
   -16.2428 -16.2373  -2.4359   1.9604   5.2420   5.4383   8.7730  10.1514
    15.1534  15.4957

     occupation numbers 
     1.0000   1.0000   1.0000   1.0000   1.0000   1.0000   1.0000   1.0000
     1.0000   1.0000   1.0000   1.0000   1.0000   1.0000   0.0013   0.0000
     0.0000   0.0000

          k = 0.5726 0.1088-0.1088 (  1581 PWs)   bands (ev):

   -16.5545 -16.5408 -16.4809 -16.4108 -16.3970 -16.3822 -16.3295 -16.3036
   -16.2378 -16.2244  -1.9142   1.1756   4.7087   5.3740   9.0448  10.5308
    14.8768  15.4461

     occupation numbers 
     1.0000   1.0000   1.0000   1.0000   1.0000   1.0000   1.0000   1.0000
     1.0000   1.0000   1.0000   1.0000   1.0000   1.0000   0.0000   0.0000
     0.0000   0.0000

          k =-0.1145-0.5439 0.5439 (  1569 PWs)   bands (ev):

   -16.5641 -16.5433 -16.4655 -16.3996 -16.3946 -16.3828 -16.3426 -16.3195
   -16.2339 -16.2139  -1.4466   0.5502   4.2491   5.4446   9.1513  11.6094
    14.6337  15.1783

     occupation numbers 
     1.0000   1.0000   1.0000   1.0000   1.0000   1.0000   1.0000   1.0000
     1.0000   1.0000   1.0000   1.0000   1.0000   1.0000   0.0000   0.0000
     0.0000   0.0000

          k =-0.0573-0.4895 0.4895 (  1567 PWs)   bands (ev):

   -16.5702 -16.5453 -16.4587 -16.4042 -16.3924 -16.3709 -16.3526 -16.3264
   -16.2313 -16.2078  -1.4037   0.4604   3.9904   5.6450   9.3029  13.0208
    14.4745  14.7809

     occupation numbers 
     1.0000   1.0000   1.0000   1.0000   1.0000   1.0000   1.0000   1.0000
     1.0000   1.0000   1.0000   1.0000   1.0000   1.0000   0.0000   0.0000
     0.0000   0.0000

          k = 0.0000-0.4351 0.4351 (  1560 PWs)   bands (ev):

   -16.5714 -16.5462 -16.4606 -16.4233 -16.3963 -16.3519 -16.3467 -16.3269
   -16.2303 -16.2070  -1.8378   0.9087   4.0361   5.9584   9.5500  14.1541
    14.2203  14.3506

     occupation numbers 
     1.0000   1.0000   1.0000   1.0000   1.0000   1.0000   1.0000   1.0000
     1.0000   1.0000   1.0000   1.0000   1.0000   1.0000   0.0000   0.0000
     0.0000   0.0000

          k = 0.5726 0.0000 0.0000 (  1579 PWs)   bands (ev):

   -16.5401 -16.5401 -16.4958 -16.4104 -16.4099 -16.3718 -16.3283 -16.2875
   -16.2388 -16.2388  -2.0158   1.3964   5.2175   5.2175   8.4552   9.5618
    16.4210  16.4210

     occupation numbers 
     1.0000   1.0000   1.0000   1.0000   1.0000   1.0000   1.0000   1.0000
     1.0000   1.0000   1.0000   1.0000   1.0000   1.0000   0.1142   0.0000
     0.0000   0.0000

          k = 0.6298 0.0544-0.0544 (  1585 PWs)   bands (ev):

   -16.5467 -16.5420 -16.4798 -16.4230 -16.3967 -16.3597 -16.3416 -16.3042
   -16.2353 -16.2310  -1.5027   0.7342   4.8784   5.1263   8.6754   9.4476
    16.4636  16.7207

     occupation numbers 
     1.0000   1.0000   1.0000   1.0000   1.0000   1.0000   1.0000   1.0000
     1.0000   1.0000   1.0000   1.0000   1.0000   1.0000   0.0068   0.0000
     0.0000   0.0000

          k =-0.0573-0.5983 0.5983 (  1577 PWs)   bands (ev):

   -16.5570 -16.5437 -16.4620 -16.4227 -16.3841 -16.3588 -16.3555 -16.3221
   -16.2327 -16.2204  -0.9847   0.1356   4.3741   5.1712   8.8685  10.1867
    16.1602  16.4782

     occupation numbers 
     1.0000   1.0000   1.0000   1.0000   1.0000   1.0000   1.0000   1.0000
     1.0000   1.0000   1.0000   1.0000   1.0000   1.0000   0.0002   0.0000
     0.0000   0.0000

          k = 0.0000-0.5439 0.5439 (  1566 PWs)   bands (ev):

   -16.5658 -16.5449 -16.4565 -16.4020 -16.3792 -16.3773 -16.3627 -16.3274
   -16.2313 -16.2117  -0.9278   0.0479   4.0080   5.3489   9.0322  11.4897
    15.6576  15.8269

     occupation numbers 
     1.0000   1.0000   1.0000   1.0000   1.0000   1.0000   1.0000   1.0000
     1.0000   1.0000   1.0000   1.0000   1.0000   1.0000   0.0000   0.0000
     0.0000   0.0000

          k = 0.6871 0.0000 0.0000 (  1587 PWs)   bands (ev):

   -16.5429 -16.5429 -16.4720 -16.4430 -16.3827 -16.3549 -16.3413 -16.3125
   -16.2335 -16.2335  -0.9962   0.1515   5.0055   5.0055   8.5424   8.9123
    17.5395  17.5395

     occupation numbers 
     1.0000   1.0000   1.0000   1.0000   1.0000   1.0000   1.0000   1.0000
     1.0000   1.0000   1.0000   1.0000   1.0000   1.0000   0.0433   0.0001
     0.0000   0.0000

          k = 0.0000-0.6527 0.6527 (  1576 PWs)   bands (ev):

   -16.5479 -16.5435 -16.4578 -16.4494 -16.3699 -16.3681 -16.3342 -16.3267
   -16.2326 -16.2286  -0.4849  -0.3827   4.7564   5.0209   8.7307   9.1123
    17.3161  17.4245

     occupation numbers 
     1.0000   1.0000   1.0000   1.0000   1.0000   1.0000   1.0000   1.0000
     1.0000   1.0000   1.0000   1.0000   1.0000   1.0000   0.0027   0.0000
     0.0000   0.0000

          k = 0.0000 0.1088 0.0000 (  1541 PWs)   bands (ev):

   -16.5316 -16.5209 -16.5172 -16.4805 -16.4711 -16.2991 -16.2788 -16.2691
   -16.2596 -16.2512  -4.3851   6.7043   7.7870   8.0861   9.6152  10.6142
    11.1388  11.4889

     occupation numbers 
     1.0000   1.0000   1.0000   1.0000   1.0000   1.0000   1.0000   1.0000
     1.0000   1.0000   1.0000   1.0000   1.0515   0.9422   0.0000   0.0000
     0.0000   0.0000

          k = 0.0573 0.1632-0.0544 (  1546 PWs)   bands (ev):

   -16.5359 -16.5255 -16.5191 -16.4731 -16.4600 -16.3111 -16.2823 -16.2695
   -16.2550 -16.2455  -4.2200   5.6142   7.4611   7.7159   9.9425  10.6765
    11.7140  12.1660

     occupation numbers 
     1.0000   1.0000   1.0000   1.0000   1.0000   1.0000   1.0000   1.0000
     1.0000   1.0000   1.0000   1.0000   1.0010   1.0292   0.0000   0.0000
     0.0000   0.0000

          k = 0.1145 0.2176-0.1088 (  1546 PWs)   bands (ev):

   -16.5424 -16.5310 -16.5163 -16.4630 -16.4484 -16.3213 -16.2911 -16.2718
   -16.2497 -16.2386  -3.9169   4.2783   7.0824   7.3496   9.7447  11.1394
    12.2634  13.0601

     occupation numbers 
     1.0000   1.0000   1.0000   1.0000   1.0000   1.0000   1.0000   1.0000
     1.0000   1.0000   1.0000   1.0000   1.0000   1.0001   0.0000   0.0000
     0.0000   0.0000

          k = 0.1718 0.2720-0.1632 (  1555 PWs)   bands (ev):

   -16.5480 -16.5359 -16.5107 -16.4536 -16.4393 -16.3281 -16.2991 -16.2778
   -16.2448 -16.2326  -3.4911   2.9736   6.7043   7.0706   9.4661  11.5071
    12.5456  13.9775

     occupation numbers 
     1.0000   1.0000   1.0000   1.0000   1.0000   1.0000   1.0000   1.0000
     1.0000   1.0000   1.0000   1.0000   1.0000   1.0000   0.0000   0.0000
     0.0000   0.0000

          k = 0.2290 0.3264-0.2176 (  1559 PWs)   bands (ev):

   -16.5516 -16.5392 -16.5046 -16.4461 -16.4347 -16.3302 -16.3055 -16.2848
   -16.2412 -16.2284  -2.9819   1.8195   6.3830   6.9089   9.2342  11.6508
    12.5662  14.9603

     occupation numbers 
     1.0000   1.0000   1.0000   1.0000   1.0000   1.0000   1.0000   1.0000
     1.0000   1.0000   1.0000   1.0000   1.0000   1.0000   0.0000   0.0000
     0.0000   0.0000

          k = 0.2863 0.3807-0.2720 (  1568 PWs)   bands (ev):

   -16.5533 -16.5411 -16.4996 -16.4411 -16.4343 -16.3284 -16.3097 -16.2913
   -16.2393 -16.2261  -2.5030   0.9629   6.1541   6.8626   9.0863  11.7128
    12.4616  15.5208

     occupation numbers 
     1.0000   1.0000   1.0000   1.0000   1.0000   1.0000   1.0000   1.0000
     1.0000   1.0000   1.0000   1.0000   1.0000   1.0000   0.0000   0.0000
     0.0000   0.0000

          k =-0.4008-0.2720 0.3807 (  1562 PWs)   bands (ev):

   -16.5535 -16.5416 -16.4970 -16.4403 -16.4350 -16.3259 -16.3098 -16.2958
   -16.2390 -16.2256  -2.3299   0.6943   6.0350   6.9261   9.0350  11.8040
    12.3407  15.5727

     occupation numbers 
     1.0000   1.0000   1.0000   1.0000   1.0000   1.0000   1.0000   1.0000
     1.0000   1.0000   1.0000   1.0000   1.0000   1.0000   0.0000   0.0000
     0.0000   0.0000

          k =-0.3435-0.2176 0.3264 (  1563 PWs)   bands (ev):

   -16.5523 -16.5405 -16.4979 -16.4449 -16.4347 -16.3251 -16.3049 -16.2970
   -16.2408 -16.2267  -2.6317   1.1866   6.0350   7.0907   9.0832  11.9406
    12.2304  15.4774

     occupation numbers 
     1.0000   1.0000   1.0000   1.0000   1.0000   1.0000   1.0000   1.0000
     1.0000   1.0000   1.0000   1.0000   1.0000   1.0000   0.0000   0.0000
     0.0000   0.0000

          k =-0.2863-0.1632 0.2720 (  1556 PWs)   bands (ev):

   -16.5498 -16.5376 -16.5020 -16.4513 -16.4375 -16.3231 -16.3006 -16.2913
   -16.2448 -16.2294  -3.1395   2.1652   6.1600   7.3428   9.2259  12.0188
    12.1079  14.7877

     occupation numbers 
     1.0000   1.0000   1.0000   1.0000   1.0000   1.0000   1.0000   1.0000
     1.0000   1.0000   1.0000   1.0000   1.0000   1.0001   0.0000   0.0000
     0.0000   0.0000

          k =-0.2290-0.1088 0.2176 (  1551 PWs)   bands (ev):

   -16.5458 -16.5327 -16.5081 -16.4593 -16.4446 -16.3177 -16.2964 -16.2818
   -16.2509 -16.2338  -3.6300   3.3876   6.4138   7.6578   9.4442  11.7203
    12.0089  13.8209

     occupation numbers 
     1.0000   1.0000   1.0000   1.0000   1.0000   1.0000   1.0000   1.0000
     1.0000   1.0000   1.0000   1.0000   1.0000   1.0161   0.0000   0.0000
     0.0000   0.0000

          k =-0.1718-0.0544 0.1632 (  1543 PWs)   bands (ev):

   -16.5401 -16.5260 -16.5142 -16.4686 -16.4554 -16.3088 -16.2899 -16.2741
   -16.2578 -16.2400  -4.0214   4.7237   6.8038   7.9855   9.6694  11.2284
    11.5970  12.9738

     occupation numbers 
     1.0000   1.0000   1.0000   1.0000   1.0000   1.0000   1.0000   1.0000
     1.0000   1.0000   1.0000   1.0000   1.0000   1.0637   0.0000   0.0000
     0.0000   0.0000

          k =-0.1145 0.0000 0.1088 (  1550 PWs)   bands (ev):

   -16.5340 -16.5193 -16.5182 -16.4775 -16.4672 -16.2979 -16.2817 -16.2757
   -16.2590 -16.2477  -4.2841   6.0008   7.3657   8.2178   9.6242  10.8329
    11.1679  12.0692

     occupation numbers 
     1.0000   1.0000   1.0000   1.0000   1.0000   1.0000   1.0000   1.0000
     1.0000   1.0000   1.0000   1.0000   1.0002   0.6239   0.0000   0.0000
     0.0000   0.0000

          k = 0.2290 0.1088 0.0000 (  1558 PWs)   bands (ev):

   -16.5371 -16.5247 -16.5144 -16.4695 -16.4535 -16.3107 -16.2878 -16.2672
   -16.2668 -16.2432  -3.9828   4.8569   6.5881   7.4951  10.2153  10.4462
    12.3314  12.9344

     occupation numbers 
     1.0000   1.0000   1.0000   1.0000   1.0000   1.0000   1.0000   1.0000
     1.0000   1.0000   1.0000   1.0000   1.0000   1.0018   0.0000   0.0000
     0.0000   0.0000

          k = 0.2863 0.1632-0.0544 (  1565 PWs)   bands (ev):

   -16.5438 -16.5313 -16.5063 -16.4603 -16.4421 -16.3214 -16.2956 -16.2789
   -16.2556 -16.2361  -3.6286   3.6950   6.0200   7.2853  10.1687  10.8345
    12.7545  13.3539

     occupation numbers 
     1.0000   1.0000   1.0000   1.0000   1.0000   1.0000   1.0000   1.0000
     1.0000   1.0000   1.0000   1.0000   1.0000   1.0000   0.0000   0.0000
     0.0000   0.0000

          k = 0.3435 0.2176-0.1088 (  1561 PWs)   bands (ev):

   -16.5504 -16.5367 -16.4968 -16.4512 -16.4334 -16.3280 -16.3021 -16.2929
   -16.2470 -16.2293  -3.1634   2.5000   5.6821   6.9874   9.9436  11.4123
    12.8233  13.7216

     occupation numbers 
     1.0000   1.0000   1.0000   1.0000   1.0000   1.0000   1.0000   1.0000
     1.0000   1.0000   1.0000   1.0000   1.0000   1.0000   0.0000   0.0000
     0.0000   0.0000

          k = 0.4008 0.2720-0.1632 (  1567 PWs)   bands (ev):

   -16.5559 -16.5400 -16.4893 -16.4427 -16.4296 -16.3290 -16.3091 -16.3043
   -16.2413 -16.2235  -2.6455   1.4592   5.5064   6.7169   9.7564  11.6928
    12.8030  14.3757

     occupation numbers 
     1.0000   1.0000   1.0000   1.0000   1.0000   1.0000   1.0000   1.0000
     1.0000   1.0000   1.0000   1.0000   1.0000   1.0000   0.0000   0.0000
     0.0000   0.0000

          k =-0.2863-0.3807 0.4895 (  1565 PWs)   bands (ev):

   -16.5593 -16.5419 -16.4863 -16.4348 -16.4305 -16.3265 -16.3200 -16.3059
   -16.2380 -16.2198  -2.2439   0.7889   5.4615   6.5330   9.6583  11.6855
    12.8247  15.3082

     occupation numbers 
     1.0000   1.0000   1.0000   1.0000   1.0000   1.0000   1.0000   1.0000
     1.0000   1.0000   1.0000   1.0000   1.0000   1.0000   0.0000   0.0000
     0.0000   0.0000

          k =-0.2290-0.3264 0.4351 (  1558 PWs)   bands (ev):

   -16.5602 -16.5427 -16.4886 -16.4343 -16.4284 -16.3331 -16.3184 -16.3017
   -16.2363 -16.2191  -2.2692   0.8141   5.5242   6.4731   9.6639  11.6358
    12.8683  15.7046

     occupation numbers 
     1.0000   1.0000   1.0000   1.0000   1.0000   1.0000   1.0000   1.0000
     1.0000   1.0000   1.0000   1.0000   1.0000   1.0000   0.0000   0.0000
     0.0000   0.0000

          k =-0.1718-0.2720 0.3807 (  1555 PWs)   bands (ev):

   -16.5584 -16.5425 -16.4954 -16.4396 -16.4258 -16.3390 -16.3136 -16.2922
   -16.2361 -16.2219  -2.6967   1.5066   5.6768   6.5609   9.7713  11.6080
    12.9227  14.7753

     occupation numbers 
     1.0000   1.0000   1.0000   1.0000   1.0000   1.0000   1.0000   1.0000
     1.0000   1.0000   1.0000   1.0000   1.0000   1.0000   0.0000   0.0000
     0.0000   0.0000

          k =-0.1145-0.2176 0.3264 (  1562 PWs)   bands (ev):

   -16.5539 -16.5410 -16.5044 -16.4462 -16.4288 -16.3393 -16.3078 -16.2808
   -16.2374 -16.2278  -3.2159   2.5332   5.9226   6.7914   9.9638  11.4912
    12.9289  13.7899

     occupation numbers 
     1.0000   1.0000   1.0000   1.0000   1.0000   1.0000   1.0000   1.0000
     1.0000   1.0000   1.0000   1.0000   1.0000   1.0000   0.0000   0.0000
     0.0000   0.0000

          k =-0.0573-0.1632 0.2720 (  1554 PWs)   bands (ev):

   -16.5472 -16.5379 -16.5129 -16.4547 -16.4371 -16.3338 -16.3002 -16.2707
   -16.2408 -16.2359  -3.6724   3.6824   6.3024   7.1108  10.1962  11.0861
    12.8166  13.1443

     occupation numbers 
     1.0000   1.0000   1.0000   1.0000   1.0000   1.0000   1.0000   1.0000
     1.0000   1.0000   1.0000   1.0000   1.0000   1.0000   0.0000   0.0000
     0.0000   0.0000

          k = 0.0000-0.1088 0.2176 (  1551 PWs)   bands (ev):

   -16.5401 -16.5328 -16.5183 -16.4644 -16.4485 -16.3238 -16.2912 -16.2654
   -16.2478 -16.2423  -4.0136   4.7778   6.8934   7.3954  10.3028  10.6241
    12.4375  12.6277

     occupation numbers 
     1.0000   1.0000   1.0000   1.0000   1.0000   1.0000   1.0000   1.0000
     1.0000   1.0000   1.0000   1.0000   1.0000   1.0003   0.0000   0.0000
     0.0000   0.0000

          k = 0.3435 0.1088 0.0000 (  1577 PWs)   bands (ev):

   -16.5395 -16.5318 -16.5102 -16.4554 -16.4318 -16.3391 -16.2889 -16.2764
   -16.2556 -16.2416  -3.4868   3.6716   5.8557   6.5873   9.6234  11.0726
    13.2466  13.6774

     occupation numbers 
     1.0000   1.0000   1.0000   1.0000   1.0000   1.0000   1.0000   1.0000
     1.0000   1.0000   1.0000   1.0000   1.0000   1.0000   0.0000   0.0000
     0.0000   0.0000

          k = 0.4008 0.1632-0.0544 (  1574 PWs)   bands (ev):

   -16.5478 -16.5376 -16.4971 -16.4452 -16.4216 -16.3487 -16.2988 -16.2914
   -16.2463 -16.2327  -3.0517   2.6719   5.3323   6.3703   9.9175  11.1633
    12.9999  14.0957

     occupation numbers 
     1.0000   1.0000   1.0000   1.0000   1.0000   1.0000   1.0000   1.0000
     1.0000   1.0000   1.0000   1.0000   1.0000   1.0000   0.0000   0.0000
     0.0000   0.0000

          k = 0.4580 0.2176-0.1088 (  1573 PWs)   bands (ev):

   -16.5565 -16.5411 -16.4840 -16.4352 -16.4163 -16.3515 -16.3104 -16.3060
   -16.2399 -16.2231  -2.5383   1.6767   5.0092   6.1311   9.9898  11.7030
    12.8773  14.1666

     occupation numbers 
     1.0000   1.0000   1.0000   1.0000   1.0000   1.0000   1.0000   1.0000
     1.0000   1.0000   1.0000   1.0000   1.0000   1.0000   0.0000   0.0000
     0.0000   0.0000

          k =-0.2290-0.4351 0.5439 (  1574 PWs)   bands (ev):

   -16.5632 -16.5436 -16.4745 -16.4263 -16.4170 -16.3467 -16.3260 -16.3135
   -16.2356 -16.2157  -2.0679   0.9072   4.8222   5.9917   9.9666  11.9639
    13.4437  14.1843

     occupation numbers 
     1.0000   1.0000   1.0000   1.0000   1.0000   1.0000   1.0000   1.0000
     1.0000   1.0000   1.0000   1.0000   1.0000   1.0000   0.0000   0.0000
     0.0000   0.0000

          k =-0.1718-0.3807 0.4895 (  1569 PWs)   bands (ev):

   -16.5665 -16.5453 -16.4721 -16.4265 -16.4150 -16.3428 -16.3314 -16.3169
   -16.2328 -16.2123  -1.9417   0.7032   4.7425   6.0072  10.0115  11.9190
    13.7692  14.9650

     occupation numbers 
     1.0000   1.0000   1.0000   1.0000   1.0000   1.0000   1.0000   1.0000
     1.0000   1.0000   1.0000   1.0000   1.0000   1.0000   0.0000   0.0000
     0.0000   0.0000

          k =-0.1145-0.3264 0.4351 (  1565 PWs)   bands (ev):

   -16.5660 -16.5461 -16.4779 -16.4332 -16.4119 -16.3491 -16.3218 -16.3117
   -16.2314 -16.2134  -2.2957   1.1990   4.7834   6.1828  10.1488  11.8874
    13.6044  14.7574

     occupation numbers 
     1.0000   1.0000   1.0000   1.0000   1.0000   1.0000   1.0000   1.0000
     1.0000   1.0000   1.0000   1.0000   1.0000   1.0000   0.0000   0.0000
     0.0000   0.0000

          k =-0.0573-0.2720 0.3807 (  1566 PWs)   bands (ev):

   -16.5618 -16.5455 -16.4897 -16.4396 -16.4154 -16.3498 -16.3162 -16.2959
   -16.2318 -16.2191  -2.8157   2.0391   4.9993   6.4854  10.3433  11.7959
    13.1382  14.0150

     occupation numbers 
     1.0000   1.0000   1.0000   1.0000   1.0000   1.0000   1.0000   1.0000
     1.0000   1.0000   1.0000   1.0000   1.0000   1.0000   0.0000   0.0000
     0.0000   0.0000

          k = 0.0000-0.2176 0.3264 (  1556 PWs)   bands (ev):

   -16.5547 -16.5430 -16.5028 -16.4465 -16.4250 -16.3439 -16.3092 -16.2805
   -16.2340 -16.2283  -3.2973   2.9254   5.4821   6.8420  10.4690  11.3641
    12.9377  13.4633

     occupation numbers 
     1.0000   1.0000   1.0000   1.0000   1.0000   1.0000   1.0000   1.0000
     1.0000   1.0000   1.0000   1.0000   1.0000   1.0000   0.0000   0.0000
     0.0000   0.0000

          k = 0.4580 0.1088 0.0000 (  1573 PWs)   bands (ev):

   -16.5425 -16.5389 -16.5012 -16.4351 -16.4055 -16.3711 -16.3056 -16.2833
   -16.2439 -16.2385  -2.8066   2.4810   5.2850   5.8022   9.1950  10.6675
    13.9253  15.0669

     occupation numbers 
     1.0000   1.0000   1.0000   1.0000   1.0000   1.0000   1.0000   1.0000
     1.0000   1.0000   1.0000   1.0000   1.0000   1.0000   0.0000   0.0000
     0.0000   0.0000

          k = 0.5153 0.1632-0.0544 (  1574 PWs)   bands (ev):

   -16.5523 -16.5431 -16.4840 -16.4237 -16.3971 -16.3786 -16.3182 -16.3014
   -16.2371 -16.2273  -2.3082   1.6509   4.8108   5.5963   9.5496  10.8499
    13.6123  15.4004

     occupation numbers 
     1.0000   1.0000   1.0000   1.0000   1.0000   1.0000   1.0000   1.0000
     1.0000   1.0000   1.0000   1.0000   1.0000   1.0000   0.0000   0.0000
     0.0000   0.0000

          k =-0.1718-0.4895 0.5983 (  1574 PWs)   bands (ev):

   -16.5620 -16.5455 -16.4683 -16.4133 -16.3968 -16.3764 -16.3325 -16.3167
   -16.2329 -16.2165  -1.7968   0.8965   4.4443   5.4844   9.6838  11.7663
    13.3238  15.2994

     occupation numbers 
     1.0000   1.0000   1.0000   1.0000   1.0000   1.0000   1.0000   1.0000
     1.0000   1.0000   1.0000   1.0000   1.0000   1.0000   0.0000   0.0000
     0.0000   0.0000

          k =-0.1145-0.4351 0.5439 (  1563 PWs)   bands (ev):

   -16.5685 -16.5473 -16.4596 -16.4109 -16.3979 -16.3672 -16.3441 -16.3247
   -16.2301 -16.2096  -1.5329   0.5263   4.2090   5.5399   9.7924  12.8623
    13.3429  14.9561

     occupation numbers 
     1.0000   1.0000   1.0000   1.0000   1.0000   1.0000   1.0000   1.0000
     1.0000   1.0000   1.0000   1.0000   1.0000   1.0000   0.0000   0.0000
     0.0000   0.0000

          k =-0.0573-0.3807 0.4895 (  1564 PWs)   bands (ev):

   -16.5705 -16.5483 -16.4609 -16.4222 -16.3961 -16.3618 -16.3383 -16.3259
   -16.2287 -16.2078  -1.8033   0.8243   4.1651   5.7556   9.9886  12.8817
    14.1083  14.6254

     occupation numbers 
     1.0000   1.0000   1.0000   1.0000   1.0000   1.0000   1.0000   1.0000
     1.0000   1.0000   1.0000   1.0000   1.0000   1.0000   0.0000   0.0000
     0.0000   0.0000

          k = 0.0000-0.3264 0.4351 (  1570 PWs)   bands (ev):

   -16.5681 -16.5479 -16.4727 -16.4327 -16.4026 -16.3583 -16.3229 -16.3168
   -16.2292 -16.2113  -2.3178   1.4422   4.4011   6.0941  10.2389  12.5786
    13.2281  14.7325

     occupation numbers 
     1.0000   1.0000   1.0000   1.0000   1.0000   1.0000   1.0000   1.0000
     1.0000   1.0000   1.0000   1.0000   1.0000   1.0000   0.0000   0.0000
     0.0000   0.0000

          k = 0.5726 0.1088-0.0000 (  1581 PWs)   bands (ev):

   -16.5459 -16.5444 -16.4852 -16.4104 -16.4038 -16.3767 -16.3291 -16.2985
   -16.2345 -16.2329  -1.9590   1.2919   4.9189   5.2218   8.9869   9.9196
    15.0832  16.4072

     occupation numbers 
     1.0000   1.0000   1.0000   1.0000   1.0000   1.0000   1.0000   1.0000
     1.0000   1.0000   1.0000   1.0000   1.0000   1.0000   0.0000   0.0000
     0.0000   0.0000

          k =-0.1145-0.5439 0.6527 (  1578 PWs)   bands (ev):

   -16.5560 -16.5469 -16.4656 -16.4091 -16.3981 -16.3704 -16.3432 -16.3179
   -16.2306 -16.2220  -1.4285   0.6188   4.4850   5.0939   9.3335  10.3697
    14.7763  16.4944

     occupation numbers 
     1.0000   1.0000   1.0000   1.0000   1.0000   1.0000   1.0000   1.0000
     1.0000   1.0000   1.0000   1.0000   1.0000   1.0000   0.0000   0.0000
     0.0000   0.0000

          k =-0.0573-0.4895 0.5983 (  1565 PWs)   bands (ev):

   -16.5651 -16.5483 -16.4530 -16.4006 -16.3889 -16.3762 -16.3564 -16.3295
   -16.2286 -16.2125  -1.0561   0.1738   4.0968   5.1633   9.4818  11.5594
    14.5015  15.6696

     occupation numbers 
     1.0000   1.0000   1.0000   1.0000   1.0000   1.0000   1.0000   1.0000
     1.0000   1.0000   1.0000   1.0000   1.0000   1.0000   0.0000   0.0000
     0.0000   0.0000

          k = 0.0000-0.4351 0.5439 (  1557 PWs)   bands (ev):

   -16.5703 -16.5488 -16.4523 -16.4031 -16.3824 -16.3795 -16.3574 -16.3301
   -16.2279 -16.2074  -1.2889   0.3729   3.9473   5.3958   9.6994  13.0402
    14.2179  14.3739

     occupation numbers 
     1.0000   1.0000   1.0000   1.0000   1.0000   1.0000   1.0000   1.0000
     1.0000   1.0000   1.0000   1.0000   1.0000   1.0000   0.0000   0.0000
     0.0000   0.0000

          k =-0.0573-0.5983 0.7071 (  1579 PWs)   bands (ev):

   -16.5479 -16.5475 -16.4627 -16.4350 -16.3833 -16.3556 -16.3479 -16.3210
   -16.2293 -16.2290  -0.9691   0.1285   4.7790   4.8782   9.0299   9.3421
    16.3523  17.1826

     occupation numbers 
     1.0000   1.0000   1.0000   1.0000   1.0000   1.0000   1.0000   1.0000
     1.0000   1.0000   1.0000   1.0000   1.0000   1.0000   0.0000   0.0000
     0.0000   0.0000

          k = 0.0000-0.5439 0.6527 (  1580 PWs)   bands (ev):

   -16.5573 -16.5483 -16.4494 -16.4291 -16.3736 -16.3677 -16.3518 -16.3334
   -16.2283 -16.2199  -0.5888  -0.2704   4.3735   4.9222   9.2681  10.1812
    16.0321  16.0558

     occupation numbers 
     1.0000   1.0000   1.0000   1.0000   1.0000   1.0000   1.0000   1.0000
     1.0000   1.0000   1.0000   1.0000   1.0000   1.0000   0.0000   0.0000
     0.0000   0.0000

          k = 0.0000 0.2176 0.0000 (  1543 PWs)   bands (ev):

   -16.5375 -16.5278 -16.5241 -16.4700 -16.4474 -16.3274 -16.2772 -16.2684
   -16.2511 -16.2447  -4.1045   5.2405   7.0945   7.3030  10.0392  10.7711
    12.1579  12.6808

     occupation numbers 
     1.0000   1.0000   1.0000   1.0000   1.0000   1.0000   1.0000   1.0000
     1.0000   1.0000   1.0000   1.0000   1.0000   1.0000   0.0000   0.0000
     0.0000   0.0000

          k = 0.0573 0.2720-0.0544 (  1553 PWs)   bands (ev):

   -16.5434 -16.5318 -16.5231 -16.4616 -16.4340 -16.3416 -16.2863 -16.2628
   -16.2498 -16.2385  -3.8489   4.3094   6.6967   6.9150  10.0395  10.9345
    12.7168  13.2343

     occupation numbers 
     1.0000   1.0000   1.0000   1.0000   1.0000   1.0000   1.0000   1.0000
     1.0000   1.0000   1.0000   1.0000   1.0000   1.0000   0.0000   0.0000
     0.0000   0.0000

          k = 0.1145 0.3264-0.1088 (  1560 PWs)   bands (ev):

   -16.5505 -16.5377 -16.5151 -16.4517 -16.4229 -16.3518 -16.2966 -16.2678
   -16.2452 -16.2301  -3.4636   3.1918   6.1877   6.6352  10.1286  11.2159
    12.9709  13.4632

     occupation numbers 
     1.0000   1.0000   1.0000   1.0000   1.0000   1.0000   1.0000   1.0000
     1.0000   1.0000   1.0000   1.0000   1.0000   1.0000   0.0000   0.0000
     0.0000   0.0000

          k = 0.1718 0.3807-0.1632 (  1558 PWs)   bands (ev):

   -16.5562 -16.5426 -16.5049 -16.4423 -16.4167 -16.3559 -16.3065 -16.2785
   -16.2387 -16.2235  -2.9760   2.0941   5.7041   6.4922  10.0060  11.6211
    13.3078  13.5938

     occupation numbers 
     1.0000   1.0000   1.0000   1.0000   1.0000   1.0000   1.0000   1.0000
     1.0000   1.0000   1.0000   1.0000   1.0000   1.0000   0.0000   0.0000
     0.0000   0.0000

          k = 0.2290 0.4351-0.2176 (  1559 PWs)   bands (ev):

   -16.5594 -16.5465 -16.4950 -16.4343 -16.4169 -16.3532 -16.3153 -16.2896
   -16.2334 -16.2197  -2.4627   1.1748   5.3275   6.4746   9.8852  11.7645
    13.2700  14.4868

     occupation numbers 
     1.0000   1.0000   1.0000   1.0000   1.0000   1.0000   1.0000   1.0000
     1.0000   1.0000   1.0000   1.0000   1.0000   1.0000   0.0000   0.0000
     0.0000   0.0000

          k =-0.4580-0.2176 0.4351 (  1559 PWs)   bands (ev):

   -16.5599 -16.5492 -16.4876 -16.4297 -16.4212 -16.3459 -16.3213 -16.2984
   -16.2300 -16.2190  -2.1422   0.6903   5.0834   6.5775   9.8400  11.8485
    13.0564  15.6027

     occupation numbers 
     1.0000   1.0000   1.0000   1.0000   1.0000   1.0000   1.0000   1.0000
     1.0000   1.0000   1.0000   1.0000   1.0000   1.0000   0.0000   0.0000
     0.0000   0.0000

          k =-0.4008-0.1632 0.3807 (  1564 PWs)   bands (ev):

   -16.5578 -16.5502 -16.4849 -16.4352 -16.4217 -16.3402 -16.3189 -16.3035
   -16.2295 -16.2211  -2.3011   0.9403   4.9868   6.7908   9.8808  11.9922
    12.8192  15.5607

     occupation numbers 
     1.0000   1.0000   1.0000   1.0000   1.0000   1.0000   1.0000   1.0000
     1.0000   1.0000   1.0000   1.0000   1.0000   1.0000   0.0000   0.0000
     0.0000   0.0000

          k =-0.3435-0.1088 0.3264 (  1559 PWs)   bands (ev):

   -16.5543 -16.5480 -16.4878 -16.4453 -16.4233 -16.3376 -16.3073 -16.3033
   -16.2340 -16.2241  -2.7769   1.7533   5.0557   7.0950   9.9953  12.1454
    12.5528  14.4976

     occupation numbers 
     1.0000   1.0000   1.0000   1.0000   1.0000   1.0000   1.0000   1.0000
     1.0000   1.0000   1.0000   1.0000   1.0000   1.0000   0.0000   0.0000
     0.0000   0.0000

          k =-0.2863-0.0544 0.2720 (  1556 PWs)   bands (ev):

   -16.5507 -16.5415 -16.4961 -16.4545 -16.4306 -16.3317 -16.3029 -16.2889
   -16.2437 -16.2276  -3.2862   2.8023   5.3272   7.4532  10.1392  11.9110
    12.3632  13.6328

     occupation numbers 
     1.0000   1.0000   1.0000   1.0000   1.0000   1.0000   1.0000   1.0000
     1.0000   1.0000   1.0000   1.0000   1.0000   1.0009   0.0000   0.0000
     0.0000   0.0000

          k =-0.2290 0.0000 0.2176 (  1555 PWs)   bands (ev):

   -16.5459 -16.5328 -16.5066 -16.4625 -16.4424 -16.3214 -16.2972 -16.2741
   -16.2561 -16.2329  -3.7143   3.8602   5.8845   7.7932  10.1399  11.4122
    11.9283  13.3640

     occupation numbers 
     1.0000   1.0000   1.0000   1.0000   1.0000   1.0000   1.0000   1.0000
     1.0000   1.0000   1.0000   1.0000   1.0000   1.0536   0.0000   0.0000
     0.0000   0.0000

          k = 0.1145 0.2176 0.0000 (  1550 PWs)   bands (ev):

   -16.5419 -16.5265 -16.5198 -16.4679 -16.4469 -16.3251 -16.2829 -16.2650
   -16.2607 -16.2380  -4.0063   4.7636   6.6640   7.6372  10.4168  10.6425
    11.9261  12.9536

     occupation numbers 
     1.0000   1.0000   1.0000   1.0000   1.0000   1.0000   1.0000   1.0000
     1.0000   1.0000   1.0000   1.0000   1.0000   1.0127   0.0000   0.0000
     0.0000   0.0000

          k = 0.1718 0.2720-0.0544 (  1556 PWs)   bands (ev):

   -16.5481 -16.5344 -16.5120 -16.4594 -16.4345 -16.3365 -16.2914 -16.2715
   -16.2524 -16.2311  -3.6589   3.6440   6.0670   7.3597  10.3453  11.1636
    12.4348  13.2586

     occupation numbers 
     1.0000   1.0000   1.0000   1.0000   1.0000   1.0000   1.0000   1.0000
     1.0000   1.0000   1.0000   1.0000   1.0000   1.0002   0.0000   0.0000
     0.0000   0.0000

          k = 0.2290 0.3264-0.1088 (  1561 PWs)   bands (ev):

   -16.5525 -16.5418 -16.5029 -16.4505 -16.4254 -16.3435 -16.2994 -16.2832
   -16.2420 -16.2263  -3.1985   2.4831   5.6706   7.0475  10.1429  11.5955
    12.7927  13.7481

     occupation numbers 
     1.0000   1.0000   1.0000   1.0000   1.0000   1.0000   1.0000   1.0000
     1.0000   1.0000   1.0000   1.0000   1.0000   1.0000   0.0000   0.0000
     0.0000   0.0000

          k = 0.2863 0.3807-0.1632 (  1561 PWs)   bands (ev):

   -16.5547 -16.5477 -16.4950 -16.4423 -16.4217 -16.3451 -16.3075 -16.2928
   -16.2340 -16.2237  -2.6805   1.4570   5.4271   6.8022   9.9792  11.7290
    12.8259  14.7639

     occupation numbers 
     1.0000   1.0000   1.0000   1.0000   1.0000   1.0000   1.0000   1.0000
     1.0000   1.0000   1.0000   1.0000   1.0000   1.0000   0.0000   0.0000
     0.0000   0.0000

          k =-0.4008-0.2720 0.4895 (  1565 PWs)   bands (ev):

   -16.5551 -16.5515 -16.4905 -16.4361 -16.4223 -16.3431 -16.3147 -16.2973
   -16.2291 -16.2232  -2.2662   0.7790   5.3110   6.6699   9.8920  11.7420
    12.7855  15.6999

     occupation numbers 
     1.0000   1.0000   1.0000   1.0000   1.0000   1.0000   1.0000   1.0000
     1.0000   1.0000   1.0000   1.0000   1.0000   1.0000   0.0000   0.0000
     0.0000   0.0000

          k = 0.3435 0.2176 0.0000 (  1564 PWs)   bands (ev):

   -16.5484 -16.5409 -16.4938 -16.4526 -16.4296 -16.3328 -16.3048 -16.2904
   -16.2445 -16.2305  -3.2367   2.9006   5.1743   7.1178  10.6157  10.8776
    13.0792  13.4379

     occupation numbers 
     1.0000   1.0000   1.0000   1.0000   1.0000   1.0000   1.0000   1.0000
     1.0000   1.0000   1.0000   1.0000   1.0000   1.0000   0.0000   0.0000
     0.0000   0.0000

          k = 0.4008 0.2720-0.0544 (  1566 PWs)   bands (ev):

   -16.5541 -16.5479 -16.4818 -16.4427 -16.4195 -16.3402 -16.3163 -16.3038
   -16.2339 -16.2249  -2.7468   1.9716   4.7103   6.8017  10.4820  11.4620
    13.0196  14.0037

     occupation numbers 
     1.0000   1.0000   1.0000   1.0000   1.0000   1.0000   1.0000   1.0000
     1.0000   1.0000   1.0000   1.0000   1.0000   1.0000   0.0000   0.0000
     0.0000   0.0000

          k =-0.2863-0.3807 0.5983 (  1566 PWs)   bands (ev):

   -16.5607 -16.5500 -16.4754 -16.4302 -16.4156 -16.3409 -16.3334 -16.3088
   -16.2292 -16.2184  -2.2378   1.1179   4.5410   6.4834  10.3222  11.6688
    13.5053  14.4789

     occupation numbers 
     1.0000   1.0000   1.0000   1.0000   1.0000   1.0000   1.0000   1.0000
     1.0000   1.0000   1.0000   1.0000   1.0000   1.0000   0.0000   0.0000
     0.0000   0.0000

          k =-0.2290-0.3264 0.5439 (  1568 PWs)   bands (ev):

   -16.5646 -16.5500 -16.4761 -16.4190 -16.4167 -16.3498 -16.3350 -16.3077
   -16.2284 -16.2140  -1.9379   0.6607   4.5816   6.2420  10.2218  11.6647
    13.8965  15.2140

     occupation numbers 
     1.0000   1.0000   1.0000   1.0000   1.0000   1.0000   1.0000   1.0000
     1.0000   1.0000   1.0000   1.0000   1.0000   1.0000   0.0000   0.0000
     0.0000   0.0000

          k =-0.1718-0.2720 0.4895 (  1562 PWs)   bands (ev):

   -16.5649 -16.5489 -16.4834 -16.4248 -16.4085 -16.3615 -16.3259 -16.3004
   -16.2295 -16.2139  -2.1334   0.9165   4.7879   6.1217  10.1988  11.6948
    13.8168  14.5606

     occupation numbers 
     1.0000   1.0000   1.0000   1.0000   1.0000   1.0000   1.0000   1.0000
     1.0000   1.0000   1.0000   1.0000   1.0000   1.0000   0.0000   0.0000
     0.0000   0.0000

          k =-0.1145-0.2176 0.4351 (  1568 PWs)   bands (ev):

   -16.5615 -16.5469 -16.4951 -16.4328 -16.4058 -16.3672 -16.3163 -16.2879
   -16.2320 -16.2181  -2.6261   1.6768   5.1334   6.1500  10.2495  11.6719
    12.9846  14.3926

     occupation numbers 
     1.0000   1.0000   1.0000   1.0000   1.0000   1.0000   1.0000   1.0000
     1.0000   1.0000   1.0000   1.0000   1.0000   1.0000   0.0000   0.0000
     0.0000   0.0000

          k =-0.0573-0.1632 0.3807 (  1565 PWs)   bands (ev):

   -16.5552 -16.5439 -16.5080 -16.4420 -16.4104 -16.3649 -16.3062 -16.2743
   -16.2355 -16.2262  -3.1344   2.6144   5.6007   6.3310  10.2947  11.2366
    12.7110  14.2902

     occupation numbers 
     1.0000   1.0000   1.0000   1.0000   1.0000   1.0000   1.0000   1.0000
     1.0000   1.0000   1.0000   1.0000   1.0000   1.0000   0.0000   0.0000
     0.0000   0.0000

          k = 0.0000-0.1088 0.3264 (  1559 PWs)   bands (ev):

   -16.5478 -16.5393 -16.5184 -16.4520 -16.4209 -16.3556 -16.2958 -16.2645
   -16.2391 -16.2366  -3.5538   3.5408   6.1863   6.5926  10.0825  10.9816
    12.8641  13.8818

     occupation numbers 
     1.0000   1.0000   1.0000   1.0000   1.0000   1.0000   1.0000   1.0000
     1.0000   1.0000   1.0000   1.0000   1.0000   1.0000   0.0000   0.0000
     0.0000   0.0000

          k = 0.4580 0.2176 0.0000 (  1573 PWs)   bands (ev):

   -16.5509 -16.5485 -16.4813 -16.4352 -16.4096 -16.3591 -16.3111 -16.3070
   -16.2333 -16.2281  -2.5893   1.9523   4.6557   6.1632  10.4611  11.1368
    12.6107  14.9857

     occupation numbers 
     1.0000   1.0000   1.0000   1.0000   1.0000   1.0000   1.0000   1.0000
     1.0000   1.0000   1.0000   1.0000   1.0000   1.0000   0.0000   0.0000
     0.0000   0.0000

          k =-0.2290-0.4351 0.6527 (  1571 PWs)   bands (ev):

   -16.5595 -16.5518 -16.4675 -16.4234 -16.4019 -16.3638 -16.3326 -16.3146
   -16.2272 -16.2194  -2.0703   1.1816   4.3030   5.8687  10.7284  11.5844
    12.5108  15.3701

     occupation numbers 
     1.0000   1.0000   1.0000   1.0000   1.0000   1.0000   1.0000   1.0000
     1.0000   1.0000   1.0000   1.0000   1.0000   1.0000   0.0000   0.0000
     0.0000   0.0000

          k =-0.1718-0.3807 0.5983 (  1569 PWs)   bands (ev):

   -16.5663 -16.5526 -16.4612 -16.4134 -16.3998 -16.3641 -16.3465 -16.3191
   -16.2254 -16.2120  -1.6593   0.6079   4.2076   5.6434  10.7715  11.6772
    13.4342  15.1108

     occupation numbers 
     1.0000   1.0000   1.0000   1.0000   1.0000   1.0000   1.0000   1.0000
     1.0000   1.0000   1.0000   1.0000   1.0000   1.0000   0.0000   0.0000
     0.0000   0.0000

          k =-0.1145-0.3264 0.5439 (  1564 PWs)   bands (ev):

   -16.5687 -16.5525 -16.4647 -16.4156 -16.3955 -16.3715 -16.3398 -16.3174
   -16.2252 -16.2094  -1.7078   0.6342   4.3003   5.5741  10.8528  11.6181
    13.9496  14.7605

     occupation numbers 
     1.0000   1.0000   1.0000   1.0000   1.0000   1.0000   1.0000   1.0000
     1.0000   1.0000   1.0000   1.0000   1.0000   1.0000   0.0000   0.0000
     0.0000   0.0000

          k =-0.0573-0.2720 0.4895 (  1567 PWs)   bands (ev):

   -16.5669 -16.5515 -16.4771 -16.4237 -16.3933 -16.3772 -16.3274 -16.3062
   -16.2264 -16.2119  -2.1657   1.2069   4.5513   5.7004  10.9645  11.5858
    12.7425  15.4090

     occupation numbers 
     1.0000   1.0000   1.0000   1.0000   1.0000   1.0000   1.0000   1.0000
     1.0000   1.0000   1.0000   1.0000   1.0000   1.0000   0.0000   0.0000
     0.0000   0.0000

          k = 0.0000-0.2176 0.4351 (  1564 PWs)   bands (ev):

   -16.5615 -16.5490 -16.4935 -16.4325 -16.3991 -16.3745 -16.3166 -16.2892
   -16.2293 -16.2186  -2.6874   1.9323   4.9781   5.9960  10.9684  11.1538
    12.4218  15.0957

     occupation numbers 
     1.0000   1.0000   1.0000   1.0000   1.0000   1.0000   1.0000   1.0000
     1.0000   1.0000   1.0000   1.0000   1.0000   1.0000   0.0000   0.0000
     0.0000   0.0000

          k =-0.1718-0.4895 0.7071 (  1576 PWs)   bands (ev):

   -16.5541 -16.5541 -16.4651 -16.4122 -16.3886 -16.3855 -16.3344 -16.3180
   -16.2248 -16.2242  -1.7979   1.0064   4.3800   5.3024  10.2294  10.8604
    13.2522  16.2669

     occupation numbers 
     1.0000   1.0000   1.0000   1.0000   1.0000   1.0000   1.0000   1.0000
     1.0000   1.0000   1.0000   1.0000   1.0000   1.0000   0.0000   0.0000
     0.0000   0.0000

          k =-0.1145-0.4351 0.6527 (  1570 PWs)   bands (ev):

   -16.5635 -16.5551 -16.4495 -16.4026 -16.3905 -16.3797 -16.3525 -16.3292
   -16.2226 -16.2144  -1.3104   0.4147   4.1468   5.0669  10.5612  11.7461
    12.9442  15.5225

     occupation numbers 
     1.0000   1.0000   1.0000   1.0000   1.0000   1.0000   1.0000   1.0000
     1.0000   1.0000   1.0000   1.0000   1.0000   1.0000   0.0000   0.0000
     0.0000   0.0000

          k =-0.0573-0.3807 0.5983 (  1566 PWs)   bands (ev):

   -16.5690 -16.5552 -16.4464 -16.4035 -16.3888 -16.3772 -16.3563 -16.3320
   -16.2221 -16.2086  -1.2102   0.2616   4.0788   5.0513  10.7439  12.6283
    13.2504  14.0311

     occupation numbers 
     1.0000   1.0000   1.0000   1.0000   1.0000   1.0000   1.0000   1.0000
     1.0000   1.0000   1.0000   1.0000   1.0000   1.0000   0.0000   0.0000
     0.0000   0.0000

          k = 0.0000-0.3264 0.5439 (  1561 PWs)   bands (ev):

   -16.5699 -16.5541 -16.4579 -16.4139 -16.3860 -16.3809 -16.3419 -16.3239
   -16.2233 -16.2079  -1.6392   0.6800   4.1946   5.2854  10.9889  12.3552
    12.8062  14.7885

     occupation numbers 
     1.0000   1.0000   1.0000   1.0000   1.0000   1.0000   1.0000   1.0000
     1.0000   1.0000   1.0000   1.0000   1.0000   1.0000   0.0000   0.0000
     0.0000   0.0000

          k =-0.0573-0.4895 0.7071 (  1578 PWs)   bands (ev):

   -16.5568 -16.5565 -16.4435 -16.4174 -16.3866 -16.3602 -16.3601 -16.3366
   -16.2208 -16.2205  -0.9016   0.0490   4.3822   4.6892  10.2167  10.4377
    14.4519  15.7773

     occupation numbers 
     1.0000   1.0000   1.0000   1.0000   1.0000   1.0000   1.0000   1.0000
     1.0000   1.0000   1.0000   1.0000   1.0000   1.0000   0.0000   0.0000
     0.0000   0.0000

          k = 0.0000-0.4351 0.6527 (  1569 PWs)   bands (ev):

   -16.5648 -16.5565 -16.4350 -16.4095 -16.3851 -16.3702 -16.3621 -16.3422
   -16.2207 -16.2126  -0.7197  -0.1649   4.1720   4.6964  10.4855  11.6442
    14.1524  14.2263

     occupation numbers 
     1.0000   1.0000   1.0000   1.0000   1.0000   1.0000   1.0000   1.0000
     1.0000   1.0000   1.0000   1.0000   1.0000   1.0000   0.0000   0.0000
     0.0000   0.0000

          k = 0.0000 0.3264 0.0000 (  1562 PWs)   bands (ev):

   -16.5450 -16.5334 -16.5287 -16.4544 -16.4181 -16.3603 -16.2913 -16.2542
   -16.2455 -16.2399  -3.6402   3.8098   6.4299   6.5730   9.5008  11.0270
    13.3585  14.0682

     occupation numbers 
     1.0000   1.0000   1.0000   1.0000   1.0000   1.0000   1.0000   1.0000
     1.0000   1.0000   1.0000   1.0000   1.0000   1.0000   0.0000   0.0000
     0.0000   0.0000

          k = 0.0573 0.3807-0.0544 (  1557 PWs)   bands (ev):

   -16.5507 -16.5400 -16.5213 -16.4444 -16.4039 -16.3751 -16.3012 -16.2573
   -16.2430 -16.2308  -3.2979   2.9977   6.0050   6.2547   9.5714  10.9227
    13.6080  14.4355

     occupation numbers 
     1.0000   1.0000   1.0000   1.0000   1.0000   1.0000   1.0000   1.0000
     1.0000   1.0000   1.0000   1.0000   1.0000   1.0000   0.0000   0.0000
     0.0000   0.0000

          k = 0.1145 0.4351-0.1088 (  1562 PWs)   bands (ev):

   -16.5579 -16.5458 -16.5084 -16.4338 -16.3951 -16.3829 -16.3123 -16.2714
   -16.2352 -16.2216  -2.8406   2.0941   5.3791   6.0932   9.7740  11.3402
    13.4052  14.5713

     occupation numbers 
     1.0000   1.0000   1.0000   1.0000   1.0000   1.0000   1.0000   1.0000
     1.0000   1.0000   1.0000   1.0000   1.0000   1.0000   0.0000   0.0000
     0.0000   0.0000

          k = 0.1718 0.4895-0.1632 (  1563 PWs)   bands (ev):

   -16.5636 -16.5503 -16.4944 -16.4239 -16.3953 -16.3806 -16.3236 -16.2867
   -16.2287 -16.2150  -2.3189   1.2428   4.8116   6.0679   9.8066  12.2753
    13.3068  14.4490

     occupation numbers 
     1.0000   1.0000   1.0000   1.0000   1.0000   1.0000   1.0000   1.0000
     1.0000   1.0000   1.0000   1.0000   1.0000   1.0000   0.0000   0.0000
     0.0000   0.0000

          k =-0.5153-0.1632 0.4895 (  1564 PWs)   bands (ev):

   -16.5664 -16.5535 -16.4829 -16.4160 -16.3989 -16.3744 -16.3334 -16.2990
   -16.2242 -16.2120  -1.8910   0.6513   4.4039   6.1710   9.8607  12.7227
    14.0156  14.2618

     occupation numbers 
     1.0000   1.0000   1.0000   1.0000   1.0000   1.0000   1.0000   1.0000
     1.0000   1.0000   1.0000   1.0000   1.0000   1.0000   0.0000   0.0000
     0.0000   0.0000

          k =-0.4580-0.1088 0.4351 (  1565 PWs)   bands (ev):

   -16.5655 -16.5556 -16.4767 -16.4163 -16.4046 -16.3634 -16.3380 -16.3057
   -16.2218 -16.2135  -1.8925   0.6753   4.1945   6.3931   9.9987  12.7551
    13.8137  15.3233

     occupation numbers 
     1.0000   1.0000   1.0000   1.0000   1.0000   1.0000   1.0000   1.0000
     1.0000   1.0000   1.0000   1.0000   1.0000   1.0000   0.0000   0.0000
     0.0000   0.0000

          k =-0.4008-0.0544 0.3807 (  1562 PWs)   bands (ev):

   -16.5605 -16.5559 -16.4766 -16.4305 -16.4078 -16.3539 -16.3290 -16.3070
   -16.2221 -16.2192  -2.3160   1.2886   4.2248   6.7141  10.1963  12.7768
    13.4086  14.3399

     occupation numbers 
     1.0000   1.0000   1.0000   1.0000   1.0000   1.0000   1.0000   1.0000
     1.0000   1.0000   1.0000   1.0000   1.0000   1.0000   0.0000   0.0000
     0.0000   0.0000

          k =-0.3435 0.0000 0.3264 (  1559 PWs)   bands (ev):

   -16.5544 -16.5519 -16.4835 -16.4451 -16.4171 -16.3443 -16.3121 -16.3027
   -16.2309 -16.2232  -2.8314   2.0845   4.5734   7.0939  10.3442  12.4127
    13.1384  13.4053

     occupation numbers 
     1.0000   1.0000   1.0000   1.0000   1.0000   1.0000   1.0000   1.0000
     1.0000   1.0000   1.0000   1.0000   1.0000   1.0000   0.0000   0.0000
     0.0000   0.0000

          k = 0.1145 0.3264 0.0000 (  1560 PWs)   bands (ev):

   -16.5494 -16.5362 -16.5189 -16.4538 -16.4195 -16.3569 -16.2931 -16.2606
   -16.2507 -16.2308  -3.5475   3.5120   6.0062   6.7641  10.1272  11.1038
    13.2127  13.3185

     occupation numbers 
     1.0000   1.0000   1.0000   1.0000   1.0000   1.0000   1.0000   1.0000
     1.0000   1.0000   1.0000   1.0000   1.0000   1.0000   0.0000   0.0000
     0.0000   0.0000

          k = 0.1718 0.3807-0.0544 (  1559 PWs)   bands (ev):

   -16.5553 -16.5442 -16.5076 -16.4443 -16.4077 -16.3678 -16.3029 -16.2736
   -16.2394 -16.2238  -3.1238   2.5665   5.4219   6.4823  10.4013  11.4298
    13.1039  13.7111

     occupation numbers 
     1.0000   1.0000   1.0000   1.0000   1.0000   1.0000   1.0000   1.0000
     1.0000   1.0000   1.0000   1.0000   1.0000   1.0000   0.0000   0.0000
     0.0000   0.0000

          k = 0.2290 0.4351-0.1088 (  1563 PWs)   bands (ev):

   -16.5600 -16.5507 -16.4953 -16.4347 -16.4019 -16.3716 -16.3135 -16.2871
   -16.2301 -16.2186  -2.6149   1.6223   4.9801   6.2550  10.4296  12.0172
    13.2436  13.8957

     occupation numbers 
     1.0000   1.0000   1.0000   1.0000   1.0000   1.0000   1.0000   1.0000
     1.0000   1.0000   1.0000   1.0000   1.0000   1.0000   0.0000   0.0000
     0.0000   0.0000

          k =-0.4580-0.2176 0.5439 (  1564 PWs)   bands (ev):

   -16.5626 -16.5552 -16.4856 -16.4267 -16.4023 -16.3687 -16.3236 -16.2974
   -16.2237 -16.2159  -2.1305   0.8677   4.6799   6.1634  10.4429  12.1304
    13.6585  14.4275

     occupation numbers 
     1.0000   1.0000   1.0000   1.0000   1.0000   1.0000   1.0000   1.0000
     1.0000   1.0000   1.0000   1.0000   1.0000   1.0000   0.0000   0.0000
     0.0000   0.0000

          k =-0.4008-0.1632 0.4895 (  1564 PWs)   bands (ev):

   -16.5624 -16.5577 -16.4808 -16.4246 -16.4044 -16.3641 -16.3278 -16.3027
   -16.2202 -16.2166  -1.9582   0.6312   4.5258   6.2235  10.5209  12.0941
    13.5568  15.5700

     occupation numbers 
     1.0000   1.0000   1.0000   1.0000   1.0000   1.0000   1.0000   1.0000
     1.0000   1.0000   1.0000   1.0000   1.0000   1.0000   0.0000   0.0000
     0.0000   0.0000

          k =-0.3435-0.1088 0.4351 (  1562 PWs)   bands (ev):

   -16.5590 -16.5582 -16.4820 -16.4317 -16.4055 -16.3620 -16.3201 -16.3032
   -16.2213 -16.2193  -2.2758   1.0971   4.5368   6.4235  10.6556  12.0859
    13.3875  14.7218

     occupation numbers 
     1.0000   1.0000   1.0000   1.0000   1.0000   1.0000   1.0000   1.0000
     1.0000   1.0000   1.0000   1.0000   1.0000   1.0000   0.0000   0.0000
     0.0000   0.0000

          k =-0.2863-0.0544 0.3807 (  1559 PWs)   bands (ev):

   -16.5568 -16.5523 -16.4893 -16.4424 -16.4102 -16.3584 -16.3063 -16.2980
   -16.2300 -16.2210  -2.7873   1.9369   4.7530   6.7327  10.8044  11.9891
    13.1417  13.6084

     occupation numbers 
     1.0000   1.0000   1.0000   1.0000   1.0000   1.0000   1.0000   1.0000
     1.0000   1.0000   1.0000   1.0000   1.0000   1.0000   0.0000   0.0000
     0.0000   0.0000

          k =-0.2290 0.0000 0.3264 (  1558 PWs)   bands (ev):

   -16.5533 -16.5434 -16.5009 -16.4520 -16.4207 -16.3494 -16.2980 -16.2834
   -16.2418 -16.2251  -3.2734   2.8464   5.2451   7.0884  10.8340  11.4881
    12.8495  13.1183

     occupation numbers 
     1.0000   1.0000   1.0000   1.0000   1.0000   1.0000   1.0000   1.0000
     1.0000   1.0000   1.0000   1.0000   1.0000   1.0000   0.0000   0.0000
     0.0000   0.0000

          k =-0.2863-0.3807 0.7071 (  1566 PWs)   bands (ev):

   -16.5592 -16.5554 -16.4709 -16.4276 -16.4067 -16.3500 -16.3393 -16.3100
   -16.2220 -16.2212  -2.2467   1.3348   4.1251   6.4579  10.5276  12.0498
    13.0062  14.8462

     occupation numbers 
     1.0000   1.0000   1.0000   1.0000   1.0000   1.0000   1.0000   1.0000
     1.0000   1.0000   1.0000   1.0000   1.0000   1.0000   0.0000   0.0000
     0.0000   0.0000

          k =-0.2290-0.3264 0.6527 (  1564 PWs)   bands (ev):

   -16.5659 -16.5563 -16.4674 -16.4080 -16.4002 -16.3634 -16.3531 -16.3123
   -16.2208 -16.2128  -1.7594   0.6980   3.9477   6.1137  10.3119  12.4486
    13.7387  15.1085

     occupation numbers 
     1.0000   1.0000   1.0000   1.0000   1.0000   1.0000   1.0000   1.0000
     1.0000   1.0000   1.0000   1.0000   1.0000   1.0000   0.0000   0.0000
     0.0000   0.0000

          k =-0.1718-0.2720 0.5983 (  1569 PWs)   bands (ev):

   -16.5685 -16.5556 -16.4710 -16.4039 -16.3944 -16.3791 -16.3467 -16.3096
   -16.2215 -16.2095  -1.5740   0.4379   4.0912   5.8518  10.1255  12.5734
    13.8536  14.8845

     occupation numbers 
     1.0000   1.0000   1.0000   1.0000   1.0000   1.0000   1.0000   1.0000
     1.0000   1.0000   1.0000   1.0000   1.0000   1.0000   0.0000   0.0000
     0.0000   0.0000

          k =-0.1145-0.2176 0.5439 (  1566 PWs)   bands (ev):

   -16.5667 -16.5538 -16.4819 -16.4123 -16.3982 -16.3777 -16.3356 -16.2989
   -16.2239 -16.2113  -1.9104   0.8258   4.4783   5.7151  10.0261  12.2166
    12.9902  15.5578

     occupation numbers 
     1.0000   1.0000   1.0000   1.0000   1.0000   1.0000   1.0000   1.0000
     1.0000   1.0000   1.0000   1.0000   1.0000   1.0000   0.0000   0.0000
     0.0000   0.0000

          k =-0.0573-0.1632 0.4895 (  1565 PWs)   bands (ev):

   -16.5614 -16.5510 -16.4977 -16.4225 -16.3974 -16.3809 -16.3237 -16.2825
   -16.2278 -16.2174  -2.4339   1.5286   5.0386   5.7302   9.9634  11.1525
    13.2108  15.7121

     occupation numbers 
     1.0000   1.0000   1.0000   1.0000   1.0000   1.0000   1.0000   1.0000
     1.0000   1.0000   1.0000   1.0000   1.0000   1.0000   0.0000   0.0000
     0.0000   0.0000

          k = 0.0000-0.1088 0.4351 (  1562 PWs)   bands (ev):

   -16.5549 -16.5463 -16.5128 -16.4334 -16.3904 -16.3891 -16.3120 -16.2666
   -16.2337 -16.2257  -2.9191   2.2928   5.6344   5.9154   9.6848  10.7419
    13.5064  15.3956

     occupation numbers 
     1.0000   1.0000   1.0000   1.0000   1.0000   1.0000   1.0000   1.0000
     1.0000   1.0000   1.0000   1.0000   1.0000   1.0000   0.0000   0.0000
     0.0000   0.0000

          k =-0.1718-0.3807 0.7071 (  1563 PWs)   bands (ev):

   -16.5636 -16.5583 -16.4558 -16.4066 -16.3884 -16.3762 -16.3558 -16.3213
   -16.2190 -16.2149  -1.5605   0.6153   3.9663   5.5167  11.2938  11.8256
    12.4793  15.3748

     occupation numbers 
     1.0000   1.0000   1.0000   1.0000   1.0000   1.0000   1.0000   1.0000
     1.0000   1.0000   1.0000   1.0000   1.0000   1.0000   0.0000   0.0000
     0.0000   0.0000

          k =-0.1145-0.3264 0.6527 (  1559 PWs)   bands (ev):

   -16.5679 -16.5594 -16.4524 -16.3972 -16.3919 -16.3770 -16.3609 -16.3247
   -16.2177 -16.2097  -1.2036   0.1895   3.9920   5.2355  11.1110  12.2198
    13.4813  13.8540

     occupation numbers 
     1.0000   1.0000   1.0000   1.0000   1.0000   1.0000   1.0000   1.0000
     1.0000   1.0000   1.0000   1.0000   1.0000   1.0000   0.0000   0.0000
     0.0000   0.0000

          k =-0.0573-0.2720 0.5983 (  1559 PWs)   bands (ev):

   -16.5684 -16.5585 -16.4609 -16.4061 -16.4014 -16.3679 -16.3498 -16.3184
   -16.2188 -16.2090  -1.4116   0.3684   4.2865   5.1223  10.9712  12.1503
    12.6334  14.9952

     occupation numbers 
     1.0000   1.0000   1.0000   1.0000   1.0000   1.0000   1.0000   1.0000
     1.0000   1.0000   1.0000   1.0000   1.0000   1.0000   0.0000   0.0000
     0.0000   0.0000

          k =-0.0000-0.2176 0.5439 (  1566 PWs)   bands (ev):

   -16.5654 -16.5559 -16.4793 -16.4115 -16.4052 -16.3714 -16.3362 -16.3010
   -16.2219 -16.2123  -1.9299   0.9225   4.6846   5.2879  10.7392  11.1692
    12.8594  16.2298

     occupation numbers 
     1.0000   1.0000   1.0000   1.0000   1.0000   1.0000   1.0000   1.0000
     1.0000   1.0000   1.0000   1.0000   1.0000   1.0000   0.0000   0.0000
     0.0000   0.0000

          k =-0.0573-0.3807 0.7071 (  1564 PWs)   bands (ev):

   -16.5644 -16.5621 -16.4339 -16.4065 -16.3884 -16.3715 -16.3637 -16.3398
   -16.2151 -16.2130  -0.8276  -0.0976   4.1457   4.6819  11.7802  11.8744
    12.6575  13.9589

     occupation numbers 
     1.0000   1.0000   1.0000   1.0000   1.0000   1.0000   1.0000   1.0000
     1.0000   1.0000   1.0000   1.0000   1.0000   1.0000   0.0000   0.0000
     0.0000   0.0000

          k = 0.0000-0.3264 0.6527 (  1554 PWs)   bands (ev):

   -16.5676 -16.5617 -16.4379 -16.4133 -16.3907 -16.3661 -16.3582 -16.3378
   -16.2154 -16.2095  -0.8836  -0.0983   4.2646   4.6347  11.9814  12.2810
    12.5639  13.4098

     occupation numbers 
     1.0000   1.0000   1.0000   1.0000   1.0000   1.0000   1.0000   1.0000
     1.0000   1.0000   1.0000   1.0000   1.0000   1.0000   0.0000   0.0000
     0.0000   0.0000

          k = 0.0000 0.4351 0.0000 (  1562 PWs)   bands (ev):

   -16.5519 -16.5429 -16.5222 -16.4341 -16.3949 -16.3862 -16.3103 -16.2545
   -16.2394 -16.2288  -2.9978   2.4270   5.8969   5.9905   9.1192  10.4410
    14.6326  15.5146

     occupation numbers 
     1.0000   1.0000   1.0000   1.0000   1.0000   1.0000   1.0000   1.0000
     1.0000   1.0000   1.0000   1.0000   1.0000   1.0000   0.0000   0.0000
     0.0000   0.0000

          k = 0.0573 0.4895-0.0544 (  1561 PWs)   bands (ev):

   -16.5566 -16.5485 -16.5116 -16.4226 -16.4092 -16.3722 -16.3217 -16.2669
   -16.2313 -16.2221  -2.5753   1.7094   5.4804   5.7738   9.2611  10.3222
    14.8023  15.7891

     occupation numbers 
     1.0000   1.0000   1.0000   1.0000   1.0000   1.0000   1.0000   1.0000
     1.0000   1.0000   1.0000   1.0000   1.0000   1.0000   0.0000   0.0000
     0.0000   0.0000

          k = 0.1145 0.5439-0.1088 (  1565 PWs)   bands (ev):

   -16.5633 -16.5531 -16.4954 -16.4162 -16.4107 -16.3643 -16.3340 -16.2846
   -16.2246 -16.2145  -2.0628   0.9891   4.8109   5.7220   9.4508  10.9736
    14.5629  15.7579

     occupation numbers 
     1.0000   1.0000   1.0000   1.0000   1.0000   1.0000   1.0000   1.0000
     1.0000   1.0000   1.0000   1.0000   1.0000   1.0000   0.0000   0.0000
     0.0000   0.0000

          k =-0.5726-0.1088 0.5439 (  1571 PWs)   bands (ev):

   -16.5687 -16.5562 -16.4808 -16.4123 -16.3998 -16.3666 -16.3458 -16.3000
   -16.2204 -16.2090  -1.5682   0.4031   4.2199   5.8048   9.5494  12.2236
    14.3266  15.4502

     occupation numbers 
     1.0000   1.0000   1.0000   1.0000   1.0000   1.0000   1.0000   1.0000
     1.0000   1.0000   1.0000   1.0000   1.0000   1.0000   0.0000   0.0000
     0.0000   0.0000

          k =-0.5153-0.0544 0.4895 (  1570 PWs)   bands (ev):

   -16.5704 -16.5578 -16.4732 -16.3990 -16.3914 -16.3804 -16.3535 -16.3077
   -16.2183 -16.2077  -1.4348   0.2852   3.8587   6.0131   9.7256  13.6495
    14.2380  14.8946

     occupation numbers 
     1.0000   1.0000   1.0000   1.0000   1.0000   1.0000   1.0000   1.0000
     1.0000   1.0000   1.0000   1.0000   1.0000   1.0000   0.0000   0.0000
     0.0000   0.0000

          k =-0.4580 0.0000 0.4351 (  1568 PWs)   bands (ev):

   -16.5675 -16.5580 -16.4722 -16.4092 -16.3937 -16.3731 -16.3480 -16.3088
   -16.2185 -16.2115  -1.8102   0.7340   3.8281   6.3286   9.9811  13.7885
    14.0804  14.6539

     occupation numbers 
     1.0000   1.0000   1.0000   1.0000   1.0000   1.0000   1.0000   1.0000
     1.0000   1.0000   1.0000   1.0000   1.0000   1.0000   0.0000   0.0000
     0.0000   0.0000

          k = 0.1145 0.4351 0.0000 (  1569 PWs)   bands (ev):

   -16.5557 -16.5461 -16.5127 -16.4344 -16.3905 -16.3890 -16.3110 -16.2658
   -16.2360 -16.2237  -2.9145   2.2675   5.4965   6.0177   9.7449  10.8031
    14.2319  14.5644

     occupation numbers 
     1.0000   1.0000   1.0000   1.0000   1.0000   1.0000   1.0000   1.0000
     1.0000   1.0000   1.0000   1.0000   1.0000   1.0000   0.0000   0.0000
     0.0000   0.0000

          k = 0.1718 0.4895-0.0544 (  1566 PWs)   bands (ev):

   -16.5614 -16.5531 -16.4980 -16.4237 -16.4001 -16.3783 -16.3225 -16.2818
   -16.2266 -16.2169  -2.4278   1.4888   4.9297   5.7727  10.0806  11.2585
    13.9507  14.9848

     occupation numbers 
     1.0000   1.0000   1.0000   1.0000   1.0000   1.0000   1.0000   1.0000
     1.0000   1.0000   1.0000   1.0000   1.0000   1.0000   0.0000   0.0000
     0.0000   0.0000

          k =-0.5153-0.1632 0.5983 (  1568 PWs)   bands (ev):

   -16.5666 -16.5575 -16.4836 -16.4145 -16.4006 -16.3747 -16.3345 -16.2969
   -16.2202 -16.2113  -1.9092   0.7816   4.4159   5.6889  10.2062  12.3880
    13.6869  14.9600

     occupation numbers 
     1.0000   1.0000   1.0000   1.0000   1.0000   1.0000   1.0000   1.0000
     1.0000   1.0000   1.0000   1.0000   1.0000   1.0000   0.0000   0.0000
     0.0000   0.0000

          k =-0.4580-0.1088 0.5439 (  1570 PWs)   bands (ev):

   -16.5692 -16.5599 -16.4746 -16.4098 -16.3909 -16.3805 -16.3429 -16.3061
   -16.2169 -16.2089  -1.5916   0.4027   4.0718   5.7707  10.3648  13.2523
    14.0143  14.7415

     occupation numbers 
     1.0000   1.0000   1.0000   1.0000   1.0000   1.0000   1.0000   1.0000
     1.0000   1.0000   1.0000   1.0000   1.0000   1.0000   0.0000   0.0000
     0.0000   0.0000

          k =-0.4008-0.0544 0.4895 (  1569 PWs)   bands (ev):

   -16.5676 -16.5607 -16.4729 -16.4142 -16.3879 -16.3814 -16.3402 -16.3083
   -16.2161 -16.2112  -1.7976   0.6707   3.9672   5.9976  10.5992  13.1738
    14.1634  14.8353

     occupation numbers 
     1.0000   1.0000   1.0000   1.0000   1.0000   1.0000   1.0000   1.0000
     1.0000   1.0000   1.0000   1.0000   1.0000   1.0000   0.0000   0.0000
     0.0000   0.0000

          k =-0.3435 0.0000 0.4351 (  1563 PWs)   bands (ev):

   -16.5617 -16.5596 -16.4780 -16.4292 -16.3963 -16.3717 -16.3236 -16.3060
   -16.2185 -16.2175  -2.2897   1.3000   4.1722   6.3386  10.8397  12.8504
    13.3812  14.0912

     occupation numbers 
     1.0000   1.0000   1.0000   1.0000   1.0000   1.0000   1.0000   1.0000
     1.0000   1.0000   1.0000   1.0000   1.0000   1.0000   0.0000   0.0000
     0.0000   0.0000

          k = 0.2290 0.4351 0.0000 (  1565 PWs)   bands (ev):

   -16.5596 -16.5536 -16.4939 -16.4347 -16.3942 -16.3804 -16.3130 -16.2882
   -16.2277 -16.2185  -2.6711   1.8483   4.7787   6.1422  11.1363  11.5401
    12.8845  14.3673

     occupation numbers 
     1.0000   1.0000   1.0000   1.0000   1.0000   1.0000   1.0000   1.0000
     1.0000   1.0000   1.0000   1.0000   1.0000   1.0000   0.0000   0.0000
     0.0000   0.0000

          k =-0.4580-0.2176 0.6527 (  1565 PWs)   bands (ev):

   -16.5635 -16.5605 -16.4808 -16.4238 -16.3897 -16.3831 -16.3260 -16.3011
   -16.2185 -16.2145  -2.1534   1.1059   4.3663   5.8189  11.3724  12.0974
    12.9930  14.8132

     occupation numbers 
     1.0000   1.0000   1.0000   1.0000   1.0000   1.0000   1.0000   1.0000
     1.0000   1.0000   1.0000   1.0000   1.0000   1.0000   0.0000   0.0000
     0.0000   0.0000

          k =-0.4008-0.1632 0.5983 (  1565 PWs)   bands (ev):

   -16.5670 -16.5627 -16.4730 -16.4158 -16.3887 -16.3819 -16.3373 -16.3077
   -16.2145 -16.2114  -1.7207   0.5410   4.1738   5.6348  11.4277  12.0742
    14.0929  14.9240

     occupation numbers 
     1.0000   1.0000   1.0000   1.0000   1.0000   1.0000   1.0000   1.0000
     1.0000   1.0000   1.0000   1.0000   1.0000   1.0000   0.0000   0.0000
     0.0000   0.0000

          k =-0.1718-0.2720 0.7071 (  1563 PWs)   bands (ev):

   -16.5694 -16.5586 -16.4648 -16.3941 -16.3881 -16.3808 -16.3624 -16.3145
   -16.2177 -16.2085  -1.2888   0.2037   3.8257   5.7612  10.0561  13.4907
    13.8978  13.9716

     occupation numbers 
     1.0000   1.0000   1.0000   1.0000   1.0000   1.0000   1.0000   1.0000
     1.0000   1.0000   1.0000   1.0000   1.0000   1.0000   0.0000   0.0000
     0.0000   0.0000

          k =-0.1145-0.2176 0.6527 (  1561 PWs)   bands (ev):

   -16.5689 -16.5587 -16.4679 -16.4184 -16.3885 -16.3597 -16.3584 -16.3122
   -16.2175 -16.2083  -1.1572   0.0160   4.1142   5.5012   9.8534  12.1414
    14.0289  15.2622

     occupation numbers 
     1.0000   1.0000   1.0000   1.0000   1.0000   1.0000   1.0000   1.0000
     1.0000   1.0000   1.0000   1.0000   1.0000   1.0000   0.0000   0.0000
     0.0000   0.0000

          k =-0.0573-0.1632 0.5983 (  1562 PWs)   bands (ev):

   -16.5647 -16.5572 -16.4813 -16.4273 -16.3986 -16.3526 -16.3467 -16.2988
   -16.2197 -16.2123  -1.5907   0.4447   4.6742   5.3719   9.7397  10.8190
    14.3128  16.5134

     occupation numbers 
     1.0000   1.0000   1.0000   1.0000   1.0000   1.0000   1.0000   1.0000
     1.0000   1.0000   1.0000   1.0000   1.0000   1.0000   0.0000   0.0000
     0.0000   0.0000

          k = 0.0000-0.1088 0.5439 (  1564 PWs)   bands (ev):

   -16.5595 -16.5535 -16.4995 -16.4222 -16.4104 -16.3591 -16.3338 -16.2801
   -16.2245 -16.2179  -2.1203   1.0663   5.2708   5.4327   9.4787  10.1650
    14.6247  16.7634

     occupation numbers 
     1.0000   1.0000   1.0000   1.0000   1.0000   1.0000   1.0000   1.0000
     1.0000   1.0000   1.0000   1.0000   1.0000   1.0000   0.0000   0.0000
     0.0000   0.0000

          k =-0.0573-0.2720 0.7071 (  1562 PWs)   bands (ev):

   -16.5674 -16.5628 -16.4478 -16.4227 -16.3800 -16.3713 -16.3530 -16.3296
   -16.2139 -16.2098  -0.7776  -0.2897   4.2022   4.9115  10.9063  12.1772
    13.6279  13.7343

     occupation numbers 
     1.0000   1.0000   1.0000   1.0000   1.0000   1.0000   1.0000   1.0000
     1.0000   1.0000   1.0000   1.0000   1.0000   1.0000   0.0000   0.0000
     0.0000   0.0000

          k = 0.0000-0.2176 0.6527 (  1567 PWs)   bands (ev):

   -16.5656 -16.5621 -16.4593 -16.4341 -16.3867 -16.3608 -16.3443 -16.3199
   -16.2147 -16.2110  -1.0502  -0.0848   4.6266   4.8241  10.7025  10.8630
    13.9682  15.2488

     occupation numbers 
     1.0000   1.0000   1.0000   1.0000   1.0000   1.0000   1.0000   1.0000
     1.0000   1.0000   1.0000   1.0000   1.0000   1.0000   0.0000   0.0000
     0.0000   0.0000

          k = 0.0000 0.5439 0.0000 (  1562 PWs)   bands (ev):

   -16.5567 -16.5510 -16.5083 -16.4290 -16.4103 -16.3537 -16.3331 -16.2711
   -16.2270 -16.2205  -2.1863   1.1116   5.5331   5.5862   8.9393   9.7628
    15.9307  16.8800

     occupation numbers 
     1.0000   1.0000   1.0000   1.0000   1.0000   1.0000   1.0000   1.0000
     1.0000   1.0000   1.0000   1.0000   1.0000   1.0000   0.0000   0.0000
     0.0000   0.0000

          k = 0.0573 0.5983-0.0544 (  1560 PWs)   bands (ev):

   -16.5600 -16.5551 -16.4946 -16.4416 -16.3978 -16.3457 -16.3407 -16.2858
   -16.2215 -16.2164  -1.6931   0.4771   5.1582   5.4810   9.1348   9.7927
    16.0835  17.0145

     occupation numbers 
     1.0000   1.0000   1.0000   1.0000   1.0000   1.0000   1.0000   1.0000
     1.0000   1.0000   1.0000   1.0000   1.0000   1.0000   0.0000   0.0000
     0.0000   0.0000

          k =-0.6298-0.0544 0.5983 (  1561 PWs)   bands (ev):

   -16.5660 -16.5575 -16.4782 -16.4424 -16.3859 -16.3587 -16.3379 -16.3030
   -16.2181 -16.2106  -1.1645  -0.0800   4.5236   5.5332   9.2781  10.7284
    15.8345  16.5900

     occupation numbers 
     1.0000   1.0000   1.0000   1.0000   1.0000   1.0000   1.0000   1.0000
     1.0000   1.0000   1.0000   1.0000   1.0000   1.0000   0.0000   0.0000
     0.0000   0.0000

          k =-0.5726 0.0000 0.5439 (  1568 PWs)   bands (ev):

   -16.5704 -16.5584 -16.4724 -16.4237 -16.3819 -16.3646 -16.3542 -16.3088
   -16.2172 -16.2069  -1.0202  -0.1712   4.0151   5.7157   9.4527  12.1409
    15.4841  15.5487

     occupation numbers 
     1.0000   1.0000   1.0000   1.0000   1.0000   1.0000   1.0000   1.0000
     1.0000   1.0000   1.0000   1.0000   1.0000   1.0000   0.0000   0.0000
     0.0000   0.0000

          k = 0.1145 0.5439-0.0000 (  1566 PWs)   bands (ev):

   -16.5601 -16.5543 -16.4997 -16.4235 -16.4109 -16.3578 -16.3335 -16.2798
   -16.2239 -16.2172  -2.1184   1.0498   5.1727   5.4736   9.5461  10.2248
    15.5342  15.9061

     occupation numbers 
     1.0000   1.0000   1.0000   1.0000   1.0000   1.0000   1.0000   1.0000
     1.0000   1.0000   1.0000   1.0000   1.0000   1.0000   0.0000   0.0000
     0.0000   0.0000

          k =-0.5726-0.1088 0.6527 (  1569 PWs)   bands (ev):

   -16.5655 -16.5592 -16.4825 -16.4299 -16.3991 -16.3503 -16.3461 -16.2975
   -16.2175 -16.2115  -1.5917   0.4197   4.6194   5.3326   9.8685  10.9199
    15.2298  16.1602

     occupation numbers 
     1.0000   1.0000   1.0000   1.0000   1.0000   1.0000   1.0000   1.0000
     1.0000   1.0000   1.0000   1.0000   1.0000   1.0000   0.0000   0.0000
     0.0000   0.0000

          k =-0.5153-0.0544 0.5983 (  1574 PWs)   bands (ev):

   -16.5705 -16.5613 -16.4706 -16.4234 -16.3895 -16.3596 -16.3526 -16.3097
   -16.2148 -16.2067  -1.1723  -0.0079   4.0921   5.4116  10.0452  12.2638
    14.9151  15.7447

     occupation numbers 
     1.0000   1.0000   1.0000   1.0000   1.0000   1.0000   1.0000   1.0000
     1.0000   1.0000   1.0000   1.0000   1.0000   1.0000   0.0000   0.0000
     0.0000   0.0000

          k =-0.4580-0.0000 0.5439 (  1574 PWs)   bands (ev):

   -16.5716 -16.5617 -16.4688 -16.4041 -16.3949 -16.3693 -16.3567 -16.3112
   -16.2145 -16.2062  -1.3224   0.1825   3.8321   5.6431  10.3024  13.8113
    14.6109  14.6306

     occupation numbers 
     1.0000   1.0000   1.0000   1.0000   1.0000   1.0000   1.0000   1.0000
     1.0000   1.0000   1.0000   1.0000   1.0000   1.0000   0.0000   0.0000
     0.0000   0.0000

          k =-0.5153-0.1632 0.7071 (  1559 PWs)   bands (ev):

   -16.5645 -16.5616 -16.4817 -16.4123 -16.4110 -16.3662 -16.3353 -16.2981
   -16.2167 -16.2128  -1.9255   0.8575   4.5292   5.3391  10.9317  11.3778
    13.7165  15.7970

     occupation numbers 
     1.0000   1.0000   1.0000   1.0000   1.0000   1.0000   1.0000   1.0000
     1.0000   1.0000   1.0000   1.0000   1.0000   1.0000   0.0000   0.0000
     0.0000   0.0000

          k =-0.4580-0.1088 0.6527 (  1566 PWs)   bands (ev):

   -16.5691 -16.5652 -16.4671 -16.4161 -16.4002 -16.3608 -16.3484 -16.3119
   -16.2117 -16.2083  -1.4241   0.2937   4.1909   5.1069  11.2650  12.4806
    13.3969  15.6482

     occupation numbers 
     1.0000   1.0000   1.0000   1.0000   1.0000   1.0000   1.0000   1.0000
     1.0000   1.0000   1.0000   1.0000   1.0000   1.0000   0.0000   0.0000
     0.0000   0.0000

          k =-0.4008-0.0544 0.5983 (  1568 PWs)   bands (ev):

   -16.5711 -16.5658 -16.4623 -16.4122 -16.3958 -16.3650 -16.3530 -16.3163
   -16.2108 -16.2065  -1.2598   0.1279   3.9879   5.1478  11.4985  13.0401
    14.0583  14.3391

     occupation numbers 
     1.0000   1.0000   1.0000   1.0000   1.0000   1.0000   1.0000   1.0000
     1.0000   1.0000   1.0000   1.0000   1.0000   1.0000   0.0000   0.0000
     0.0000   0.0000

          k =-0.3435 0.0000 0.5439 (  1567 PWs)   bands (ev):

   -16.5684 -16.5650 -16.4682 -16.4093 -16.4008 -16.3715 -16.3433 -16.3115
   -16.2119 -16.2098  -1.6420   0.5481   4.0267   5.4080  11.7638  12.6760
    13.0831  15.3533

     occupation numbers 
     1.0000   1.0000   1.0000   1.0000   1.0000   1.0000   1.0000   1.0000
     1.0000   1.0000   1.0000   1.0000   1.0000   1.0000   0.0000   0.0000
     0.0000   0.0000

          k =-0.0573-0.1632 0.7071 (  1561 PWs)   bands (ev):

   -16.5655 -16.5599 -16.4658 -16.4475 -16.3752 -16.3699 -16.3322 -16.3151
   -16.2159 -16.2110  -0.7496  -0.4792   4.5486   5.2541   9.6644  10.6865
    15.5388  15.5726

     occupation numbers 
     1.0000   1.0000   1.0000   1.0000   1.0000   1.0000   1.0000   1.0000
     1.0000   1.0000   1.0000   1.0000   1.0000   1.0000   0.0000   0.0000
     0.0000   0.0000

          k = 0.0000-0.1088 0.6527 (  1563 PWs)   bands (ev):

   -16.5609 -16.5588 -16.4791 -16.4528 -16.3849 -16.3588 -16.3289 -16.3019
   -16.2173 -16.2148  -1.1734  -0.1012   5.1110   5.1636   9.4865   9.7182
    15.8639  16.9628

     occupation numbers 
     1.0000   1.0000   1.0000   1.0000   1.0000   1.0000   1.0000   1.0000
     1.0000   1.0000   1.0000   1.0000   1.0000   1.0000   0.0000   0.0000
     0.0000   0.0000

          k = 0.0000 0.6527 0.0000 (  1550 PWs)   bands (ev):

   -16.5583 -16.5563 -16.4874 -16.4605 -16.3845 -16.3583 -16.3224 -16.2943
   -16.2192 -16.2170  -1.2185  -0.1119   5.3559   5.3731   8.9822   9.2583
    17.1371  17.6862

     occupation numbers 
     1.0000   1.0000   1.0000   1.0000   1.0000   1.0000   1.0000   1.0000
     1.0000   1.0000   1.0000   1.0000   1.0000   1.0000   0.0000   0.0000
     0.0000   0.0000

          k =-0.6871 0.0000 0.6527 (  1554 PWs)   bands (ev):

   -16.5607 -16.5579 -16.4743 -16.4672 -16.3725 -16.3707 -16.3145 -16.3080
   -16.2173 -16.2149  -0.7103  -0.6246   5.0499   5.3827   9.1328   9.5663
    17.1318  17.2170

     occupation numbers 
     1.0000   1.0000   1.0000   1.0000   1.0000   1.0000   1.0000   1.0000
     1.0000   1.0000   1.0000   1.0000   1.0000   1.0000   0.0000   0.0000
     0.0000   0.0000

          k =-0.6298-0.0544 0.7071 (  1560 PWs)   bands (ev):

   -16.5616 -16.5597 -16.4797 -16.4539 -16.3851 -16.3587 -16.3278 -16.3011
   -16.2163 -16.2142  -1.1756  -0.1095   5.0538   5.1519   9.5552   9.7837
    16.7694  17.0003

     occupation numbers 
     1.0000   1.0000   1.0000   1.0000   1.0000   1.0000   1.0000   1.0000
     1.0000   1.0000   1.0000   1.0000   1.0000   1.0000   0.0000   0.0000
     0.0000   0.0000

          k =-0.5726 0.0000 0.6527 (  1571 PWs)   bands (ev):

   -16.5669 -16.5615 -16.4676 -16.4498 -16.3758 -16.3696 -16.3298 -16.3133
   -16.2142 -16.2096  -0.7620  -0.4893   4.5128   5.1857   9.7974  10.7890
    16.3178  16.4601

     occupation numbers 
     1.0000   1.0000   1.0000   1.0000   1.0000   1.0000   1.0000   1.0000
     1.0000   1.0000   1.0000   1.0000   1.0000   1.0000   0.0000   0.0000
     0.0000   0.0000

          k =-0.5153-0.0544 0.7071 (  1571 PWs)   bands (ev):

   -16.5671 -16.5662 -16.4632 -16.4392 -16.3869 -16.3607 -16.3393 -16.3158
   -16.2104 -16.2094  -1.0638  -0.1226   4.5256   4.7917  10.9042  11.0635
    14.9429  16.0925

     occupation numbers 
     1.0000   1.0000   1.0000   1.0000   1.0000   1.0000   1.0000   1.0000
     1.0000   1.0000   1.0000   1.0000   1.0000   1.0000   0.0000   0.0000
     0.0000   0.0000

          k =-0.4580 0.0000 0.6527 (  1569 PWs)   bands (ev):

   -16.5711 -16.5670 -16.4550 -16.4324 -16.3818 -16.3687 -16.3437 -16.3231
   -16.2095 -16.2059  -0.8235  -0.3278   4.1699   4.8163  11.2016  12.4204
    14.5932  14.6300

     occupation numbers 
     1.0000   1.0000   1.0000   1.0000   1.0000   1.0000   1.0000   1.0000
     1.0000   1.0000   1.0000   1.0000   1.0000   1.0000   0.0000   0.0000
     0.0000   0.0000

          k =-0.4008-0.0544 0.7071 (  1571 PWs)   bands (ev):

   -16.5709 -16.5694 -16.4511 -16.4280 -16.3875 -16.3651 -16.3469 -16.3258
   -16.2073 -16.2062  -0.9290  -0.1920   4.1773   4.6463  12.6329  12.6495
    13.0970  14.3004

     occupation numbers 
     1.0000   1.0000   1.0000   1.0000   1.0000   1.0000   1.0000   1.0000
     1.0000   1.0000   1.0000   1.0000   1.0000   1.0000   0.0000   0.0000
     0.0000   0.0000

     the Fermi energy is     8.3007 ev

!    total energy              =    -426.37999296 Ry
     estimated scf accuracy    <          9.3E-12 Ry
     smearing contrib. (-TS)   =       0.00010385 Ry
     internal energy E=F+TS    =    -426.38009681 Ry

     The total energy is F=E-TS. E is the sum of the following terms:
     one-electron contribution =    -278.83648370 Ry
     hartree contribution      =     165.05397359 Ry
     xc contribution           =    -115.27376088 Ry
     ewald contribution        =    -197.32382582 Ry

     convergence has been achieved in   9 iterations

     Forces acting on atoms (cartesian axes, Ry/au):

     atom    1 type  1   force =     0.00000000    0.00000000   -0.00000000
     atom    2 type  1   force =     0.00000000    0.00000000   -0.00000000
     The non-local contrib.  to forces
     atom    1 type  1   force =     0.00000000    0.00000000    0.00000000
     atom    2 type  1   force =     0.00000000    0.00000000    0.00000000
     The ionic contribution  to forces
     atom    1 type  1   force =     0.00000000   -0.00000000   -0.00000000
     atom    2 type  1   force =    -0.00000000   -0.00000000   -0.00000000
     The local contribution  to forces
     atom    1 type  1   force =     0.00000000    0.00000000    0.00000000
     atom    2 type  1   force =     0.00000000    0.00000000    0.00000000
     The core correction contribution to forces
     atom    1 type  1   force =    -0.00000000    0.00000000    0.00000000
     atom    2 type  1   force =     0.00000000    0.00000000    0.00000000
     The Hubbard contrib.    to forces
     atom    1 type  1   force =     0.00000000    0.00000000    0.00000000
     atom    2 type  1   force =     0.00000000    0.00000000    0.00000000
     The SCF correction term to forces
     atom    1 type  1   force =    -0.00000000    0.00000000   -0.00000000
     atom    2 type  1   force =     0.00000000   -0.00000000   -0.00000000

     Total force =     0.000000     Total SCF correction =     0.000000


     Computing stress (Cartesian axis) and pressure

          total   stress  (Ry/bohr**3)                   (kbar)     P=        1.42
   0.00015718   0.00000000   0.00000000           23.12        0.00        0.00
   0.00000000  -0.00006408  -0.00000000            0.00       -9.43       -0.00
   0.00000000  -0.00000000  -0.00006408            0.00       -0.00       -9.43

     kinetic stress (kbar)  10021.68      0.00     -0.00
                                0.00   9977.38      0.00
                               -0.00     -0.00   9977.38

     local   stress (kbar)   4392.62     -0.00     -0.00
                               -0.00    641.45     -0.00
                               -0.00     -0.00    641.45

     nonloc. stress (kbar)   2975.53      0.00     -0.00
                                0.00   2992.96     -0.00
                               -0.00     -0.00   2992.96

     hartree stress (kbar)  25367.07      0.00      0.00
                                0.00  26894.01      0.00
                                0.00      0.00  26894.01

     exc-cor stress (kbar)  19557.03      0.00     -0.00
                                0.00  19558.05     -0.00
                               -0.00     -0.00  19558.05

     corecor stress (kbar) -29268.43     -0.00      0.00
                               -0.00 -29269.08      0.00
                                0.00      0.00 -29269.08

     ewald   stress (kbar) -33022.37     -0.00     -0.00
                               -0.00 -30804.19     -0.00
                               -0.00     -0.00 -30804.19

     hubbard stress (kbar)      0.00      0.00      0.00
                                0.00      0.00      0.00
                                0.00      0.00      0.00

     DFT-D   stress (kbar)      0.00      0.00      0.00
                                0.00      0.00      0.00
                                0.00      0.00      0.00

     XDM     stress (kbar)      0.00      0.00      0.00
                                0.00      0.00      0.00
                                0.00      0.00      0.00

     dft-nl  stress (kbar)      0.00      0.00      0.00
                                0.00      0.00      0.00
                                0.00      0.00      0.00

     TS-vdW  stress (kbar)      0.00      0.00      0.00
                                0.00      0.00      0.00
                                0.00      0.00      0.00

     MDB     stress (kbar)      0.00      0.00      0.00
                                0.00      0.00      0.00
                                0.00      0.00      0.00

     3D-RISM stress (kbar)      0.00      0.00      0.00
                                0.00      0.00      0.00
                                0.00      0.00      0.00


     Writing all to output data dir ./out/aiida.save/ :
     XML data file, charge density, pseudopotentials, collected wavefunctions

     init_run     :     19.96s CPU     10.23s WALL (       1 calls)
     electrons    :    600.55s CPU    299.64s WALL (       1 calls)
     forces       :      2.72s CPU      1.15s WALL (       1 calls)
     stress       :     13.41s CPU      6.54s WALL (       1 calls)

     Called by init_run:
     wfcinit      :     19.45s CPU      9.72s WALL (       1 calls)
     wfcinit:atom :      0.29s CPU      0.14s WALL (     196 calls)
     wfcinit:wfcr :     17.54s CPU      8.78s WALL (     196 calls)
     potinit      :      0.07s CPU      0.07s WALL (       1 calls)
     hinit0       :      0.24s CPU      0.25s WALL (       1 calls)

     Called by electrons:
     c_bands      :    503.17s CPU    247.68s WALL (      10 calls)
     sum_band     :     94.82s CPU     49.45s WALL (      10 calls)
     v_of_rho     :      0.65s CPU      0.64s WALL (      10 calls)
     v_h          :      0.03s CPU      0.03s WALL (      10 calls)
     v_xc         :      0.85s CPU      0.77s WALL (      12 calls)
     newd         :      1.97s CPU      1.94s WALL (      10 calls)
     mix_rho      :      0.06s CPU      0.06s WALL (      10 calls)

     Called by c_bands:
     init_us_2    :     11.28s CPU      4.87s WALL (    4508 calls)
     cegterg      :    483.18s CPU    237.93s WALL (    1960 calls)

     Called by sum_band:
     sum_band:wei :      0.16s CPU      0.08s WALL (      10 calls)
     sum_band:loo :     89.97s CPU     46.62s WALL (      10 calls)
     sum_band:buf :      0.51s CPU      0.18s WALL (    1960 calls)
     sum_band:ini :      4.85s CPU      2.17s WALL (    1960 calls)
     sum_band:cal :      3.62s CPU      1.89s WALL (    1960 calls)
     sum_band:bec :      0.15s CPU      0.05s WALL (    1960 calls)
     addusdens    :      4.58s CPU      2.67s WALL (      10 calls)
                                        0.00s GPU  (      10 calls)
     addusd:skk   :      0.01s CPU      0.01s WALL (      10 calls)
                                        0.00s GPU  (      10 calls)

     Called by *egterg:
     cdiaghg      :     13.48s CPU      5.13s WALL (    6072 calls)
     cegterg:over :     12.04s CPU      3.40s WALL (    4308 calls)
     cegterg:upda :      6.82s CPU      2.41s WALL (    4308 calls)
     cegterg:last :     11.56s CPU      3.21s WALL (    3701 calls)
     h_psi        :    437.38s CPU    226.53s WALL (    6464 calls)
     s_psi        :      7.83s CPU      2.47s WALL (    6464 calls)
     g_psi        :      2.19s CPU      0.67s WALL (    4308 calls)

     Called by h_psi:
     h_psi:calbec :     11.47s CPU      6.60s WALL (    6464 calls)
     vloc_psi     :    417.26s CPU    217.04s WALL (    6464 calls)
                                        0.00s GPU  (    6464 calls)
     add_vuspsi   :      7.37s CPU      2.40s WALL (    6464 calls)

     General routines
     calbec       :     19.51s CPU     10.39s WALL (   11756 calls)
     fft          :      0.50s CPU      0.44s WALL (     154 calls)
     ffts         :      0.05s CPU      0.03s WALL (      20 calls)
     fftw         :    448.37s CPU    235.43s WALL (  216528 calls)
     interpolate  :      0.04s CPU      0.04s WALL (      10 calls)

     Parallel routines

     PWSCF        :  10m36.98s CPU   5m17.88s WALL


   This run was terminated on:   0: 8:32  25Dec2025            

=------------------------------------------------------------------------------=
   JOB DONE.
=------------------------------------------------------------------------------=
