
     Program PWSCF v.7.4.1 starts on 25Dec2025 at  0:57: 9 

     This program is part of the open-source Quantum ESPRESSO suite
     for quantum simulation of materials; please cite
         "P. Giannozzi et al., J. Phys.:Condens. Matter 21 395502 (2009);
         "P. Giannozzi et al., J. Phys.:Condens. Matter 29 465901 (2017);
         "P. Giannozzi et al., J. Chem. Phys. 152 154105 (2020);
          URL http://www.quantum-espresso.org", 
     in publications or presentations arising from this work. More details at
     http://www.quantum-espresso.org/quote

     Parallel version (MPI), running on     1 processors

     MPI processes distributed on     1 nodes
     328 MiB available memory on the printing compute node when the environment starts

     Waiting for input...
     Reading input from standard input
Warning: card &CELL ignored

     Current dimensions of program PWSCF are:
     Max number of different atomic species (ntypx) = 10
     Max number of k-points (npk) =  40000
     Max angular momentum in pseudopotentials (lmaxx) =  4
     Message from routine setup:
     using ibrav=0 with symmetry is DISCOURAGED, use correct ibrav instead

     Subspace diagonalization in iterative solution of the eigenvalue problem:
     a serial algorithm will be used


     G-vector sticks info
     --------------------
     sticks:   dense  smooth     PW     G-vecs:    dense   smooth      PW
     Sum        1491     749    231                37197    13183    2253

     Using Slab Decomposition



     bravais-lattice index     =            0
     lattice parameter (alat)  =       7.7006  a.u.
     unit-cell volume          =     322.8875 (a.u.)^3
     number of atoms/cell      =            2
     number of atomic types    =            1
     number of electrons       =        28.00
     number of Kohn-Sham states=           18
     kinetic-energy cutoff     =      45.0000  Ry
     charge density cutoff     =     360.0000  Ry
     scf convergence threshold =      4.0E-10
     mixing beta               =       0.4000
     number of iterations used =            8  plain     mixing
     Exchange-correlation= SLA  PW   PSX  PSC
                           (   1   4  10   8   0   0   0)

     celldm(1)=   7.700556  celldm(2)=   0.000000  celldm(3)=   0.000000
     celldm(4)=   0.000000  celldm(5)=   0.000000  celldm(6)=   0.000000

     crystal axes: (cart. coord. in units of alat)
               a(1) = (   0.000000   0.707107   0.707107 )  
               a(2) = (   0.707107  -0.021213   0.707107 )  
               a(3) = (   0.707107   0.685894   0.000000 )  

     reciprocal axes: (cart. coord. in units 2 pi/alat)
               b(1) = ( -0.685894  0.707107  0.707107 )  
               b(2) = (  0.685894 -0.707107  0.707107 )  
               b(3) = (  0.728320  0.707107 -0.707107 )  


     PseudoPot. # 1 for Ge read from file:
     ./pseudo/ge_pbesol_v1.4.uspp.F.UPF
     MD5 check sum: 7bed0412183f5e553a4d27ec7023354d
     Pseudo is Ultrasoft + core correction, Zval = 14.0
     Generated by new atomic code, or converted to UPF format
     Using radial grid of  873 points,  6 beta functions with: 
                l(1) =   0
                l(2) =   0
                l(3) =   1
                l(4) =   1
                l(5) =   2
                l(6) =   2
     Q(r) pseudized with  8 coefficients,  rinner =    1.400   1.400   1.400
                                                       1.400   1.400

     atomic species   valence    mass     pseudopotential
     Ge               14.00    72.64000     Ge( 1.00)

      4 Sym. Ops., with inversion, found ( 2 have fractional translation)


                                    s                        frac. trans.

      isym =  1     identity                                     

 cryst.   s( 1) = (     1          0          0      )
                  (     0          1          0      )
                  (     0          0          1      )

 cart.    s( 1) = (  1.0000000  0.0000000  0.0000000 )
                  (  0.0000000  1.0000000 -0.0000000 )
                  (  0.0000000  0.0000000  1.0000000 )


      isym =  2     180 deg rotation - cart. axis [0,0,1]        

 cryst.   s( 2) = (     0          1         -1      )
                  (     1          0         -1      )
                  (     0          0         -1      )

 cart.    s( 2) = ( -1.0000000  0.0000000  0.0000000 )
                  (  0.0000000 -1.0000000  0.0000000 )
                  (  0.0000000  0.0000000  1.0000000 )


      isym =  3     inversion                                    

 cryst.   s( 3) = (    -1          0          0      )    f =( -0.2500000 )
                  (     0         -1          0      )       ( -0.2500000 )
                  (     0          0         -1      )       ( -0.2500000 )

 cart.    s( 3) = ( -1.0000000  0.0000000  0.0000000 )    f =( -0.3535534 )
                  (  0.0000000 -1.0000000  0.0000000 )       ( -0.3429468 )
                  (  0.0000000  0.0000000 -1.0000000 )       ( -0.3535534 )


      isym =  4     inv. 180 deg rotation - cart. axis [0,0,1]   

 cryst.   s( 4) = (     0         -1          1      )    f =( -0.2500000 )
                  (    -1          0          1      )       ( -0.2500000 )
                  (     0          0          1      )       ( -0.2500000 )

 cart.    s( 4) = (  1.0000000  0.0000000  0.0000000 )    f =( -0.3535534 )
                  (  0.0000000  1.0000000 -0.0000000 )       ( -0.3429468 )
                  (  0.0000000  0.0000000 -1.0000000 )       ( -0.3535534 )


   Cartesian axes

     site n.     atom                  positions (alat units)
         1        Ge     tau(   1) = (   0.7071068   0.6858936   0.7071068  )
         2        Ge     tau(   2) = (   1.0606602   1.0288404   1.0606602  )

   Crystallographic axes

     site n.     atom                  positions (cryst. coord.)
         1        Ge     tau(   1) = (  0.5000000  0.5000000  0.5000000  )
         2        Ge     tau(   2) = (  0.7500000  0.7500000  0.7500000  )

     number of k points=   595  Marzari-Vanderbilt smearing, width (Ry)=  0.0200
                       cart. coord. in units 2pi/alat
        k(    1) = (   0.0000000   0.0000000   0.0000000), wk =   0.0009103
        k(    2) = (   0.0560246   0.0543928  -0.0543928), wk =   0.0036413
        k(    3) = (   0.1120492   0.1087857  -0.1087857), wk =   0.0036413
        k(    4) = (   0.1680738   0.1631785  -0.1631785), wk =   0.0036413
        k(    5) = (   0.2240985   0.2175713  -0.2175713), wk =   0.0036413
        k(    6) = (   0.2801231   0.2719641  -0.2719641), wk =   0.0036413
        k(    7) = (   0.3361477   0.3263570  -0.3263570), wk =   0.0036413
        k(    8) = (   0.0527610  -0.0543928   0.0543928), wk =   0.0036413
        k(    9) = (   0.1087857   0.0000000   0.0000000), wk =   0.0018207
        k(   10) = (   0.1648103   0.0543928  -0.0543928), wk =   0.0036413
        k(   11) = (   0.2208349   0.1087857  -0.1087857), wk =   0.0036413
        k(   12) = (   0.2768595   0.1631785  -0.1631785), wk =   0.0036413
        k(   13) = (   0.3328841   0.2175713  -0.2175713), wk =   0.0036413
        k(   14) = (   0.3889087   0.2719641  -0.2719641), wk =   0.0036413
        k(   15) = (  -0.2833866  -0.3807498   0.3807498), wk =   0.0036413
        k(   16) = (  -0.2273620  -0.3263570   0.3263570), wk =   0.0036413
        k(   17) = (  -0.1713374  -0.2719641   0.2719641), wk =   0.0036413
        k(   18) = (  -0.1153128  -0.2175713   0.2175713), wk =   0.0036413
        k(   19) = (  -0.0592882  -0.1631785   0.1631785), wk =   0.0036413
        k(   20) = (  -0.0032636  -0.1087857   0.1087857), wk =   0.0036413
        k(   21) = (   0.1055221  -0.1087857   0.1087857), wk =   0.0036413
        k(   22) = (   0.1615467  -0.0543928   0.0543928), wk =   0.0036413
        k(   23) = (   0.2175713   0.0000000   0.0000000), wk =   0.0018207
        k(   24) = (   0.2735959   0.0543928  -0.0543928), wk =   0.0036413
        k(   25) = (   0.3296205   0.1087857  -0.1087857), wk =   0.0036413
        k(   26) = (   0.3856452   0.1631785  -0.1631785), wk =   0.0036413
        k(   27) = (   0.4416698   0.2175713  -0.2175713), wk =   0.0036413
        k(   28) = (  -0.2306256  -0.4351426   0.4351426), wk =   0.0036413
        k(   29) = (  -0.1746010  -0.3807498   0.3807498), wk =   0.0036413
        k(   30) = (  -0.1185764  -0.3263570   0.3263570), wk =   0.0036413
        k(   31) = (  -0.0625518  -0.2719641   0.2719641), wk =   0.0036413
        k(   32) = (  -0.0065271  -0.2175713   0.2175713), wk =   0.0036413
        k(   33) = (   0.0494975  -0.1631785   0.1631785), wk =   0.0036413
        k(   34) = (   0.1582831  -0.1631785   0.1631785), wk =   0.0036413
        k(   35) = (   0.2143077  -0.1087857   0.1087857), wk =   0.0036413
        k(   36) = (   0.2703324  -0.0543928   0.0543928), wk =   0.0036413
        k(   37) = (   0.3263570   0.0000000   0.0000000), wk =   0.0018207
        k(   38) = (   0.3823816   0.0543928  -0.0543928), wk =   0.0036413
        k(   39) = (   0.4384062   0.1087857  -0.1087857), wk =   0.0036413
        k(   40) = (   0.4944308   0.1631785  -0.1631785), wk =   0.0036413
        k(   41) = (  -0.1778646  -0.4895355   0.4895355), wk =   0.0036413
        k(   42) = (  -0.1218399  -0.4351426   0.4351426), wk =   0.0036413
        k(   43) = (  -0.0658153  -0.3807498   0.3807498), wk =   0.0036413
        k(   44) = (  -0.0097907  -0.3263570   0.3263570), wk =   0.0036413
        k(   45) = (   0.0462339  -0.2719641   0.2719641), wk =   0.0036413
        k(   46) = (   0.1022585  -0.2175713   0.2175713), wk =   0.0036413
        k(   47) = (   0.2110442  -0.2175713   0.2175713), wk =   0.0036413
        k(   48) = (   0.2670688  -0.1631785   0.1631785), wk =   0.0036413
        k(   49) = (   0.3230934  -0.1087857   0.1087857), wk =   0.0036413
        k(   50) = (   0.3791180  -0.0543928   0.0543928), wk =   0.0036413
        k(   51) = (   0.4351426   0.0000000   0.0000000), wk =   0.0018207
        k(   52) = (   0.4911672   0.0543928  -0.0543928), wk =   0.0036413
        k(   53) = (   0.5471919   0.1087857  -0.1087857), wk =   0.0036413
        k(   54) = (  -0.1251035  -0.5439283   0.5439283), wk =   0.0036413
        k(   55) = (  -0.0690789  -0.4895355   0.4895355), wk =   0.0036413
        k(   56) = (  -0.0130543  -0.4351426   0.4351426), wk =   0.0036413
        k(   57) = (   0.0429703  -0.3807498   0.3807498), wk =   0.0036413
        k(   58) = (   0.0989949  -0.3263570   0.3263570), wk =   0.0036413
        k(   59) = (   0.1550196  -0.2719641   0.2719641), wk =   0.0036413
        k(   60) = (   0.2638052  -0.2719641   0.2719641), wk =   0.0036413
        k(   61) = (   0.3198298  -0.2175713   0.2175713), wk =   0.0036413
        k(   62) = (   0.3758545  -0.1631785   0.1631785), wk =   0.0036413
        k(   63) = (   0.4318791  -0.1087857   0.1087857), wk =   0.0036413
        k(   64) = (   0.4879037  -0.0543928   0.0543928), wk =   0.0036413
        k(   65) = (   0.5439283   0.0000000   0.0000000), wk =   0.0018207
        k(   66) = (   0.5999529   0.0543928  -0.0543928), wk =   0.0036413
        k(   67) = (  -0.0723425  -0.5983211   0.5983211), wk =   0.0036413
        k(   68) = (  -0.0163178  -0.5439283   0.5439283), wk =   0.0036413
        k(   69) = (   0.0397068  -0.4895355   0.4895355), wk =   0.0036413
        k(   70) = (   0.0957314  -0.4351426   0.4351426), wk =   0.0036413
        k(   71) = (   0.1517560  -0.3807498   0.3807498), wk =   0.0036413
        k(   72) = (   0.2077806  -0.3263570   0.3263570), wk =   0.0036413
        k(   73) = (   0.3165663  -0.3263570   0.3263570), wk =   0.0036413
        k(   74) = (   0.3725909  -0.2719641   0.2719641), wk =   0.0036413
        k(   75) = (   0.4286155  -0.2175713   0.2175713), wk =   0.0036413
        k(   76) = (   0.4846401  -0.1631785   0.1631785), wk =   0.0036413
        k(   77) = (   0.5406647  -0.1087857   0.1087857), wk =   0.0036413
        k(   78) = (   0.5966893  -0.0543928   0.0543928), wk =   0.0036413
        k(   79) = (   0.6527140   0.0000000   0.0000000), wk =   0.0018207
        k(   80) = (  -0.0195814  -0.6527140   0.6527140), wk =   0.0036413
        k(   81) = (   0.0364432  -0.5983211   0.5983211), wk =   0.0036413
        k(   82) = (   0.0924678  -0.5439283   0.5439283), wk =   0.0036413
        k(   83) = (   0.1484924  -0.4895355   0.4895355), wk =   0.0036413
        k(   84) = (   0.2045170  -0.4351426   0.4351426), wk =   0.0036413
        k(   85) = (   0.2605417  -0.3807498   0.3807498), wk =   0.0036413
        k(   86) = (   0.0032636   0.1087857  -0.0000000), wk =   0.0018207
        k(   87) = (   0.0592882   0.1631785  -0.0543928), wk =   0.0036413
        k(   88) = (   0.1153128   0.2175713  -0.1087857), wk =   0.0036413
        k(   89) = (   0.1713374   0.2719641  -0.1631785), wk =   0.0036413
        k(   90) = (   0.2273620   0.3263570  -0.2175713), wk =   0.0036413
        k(   91) = (   0.2833866   0.3807498  -0.2719641), wk =   0.0036413
        k(   92) = (  -0.3889087  -0.2719641   0.3807498), wk =   0.0036413
        k(   93) = (  -0.3328841  -0.2175713   0.3263570), wk =   0.0036413
        k(   94) = (  -0.2768595  -0.1631785   0.2719641), wk =   0.0036413
        k(   95) = (  -0.2208349  -0.1087857   0.2175713), wk =   0.0036413
        k(   96) = (  -0.1648103  -0.0543928   0.1631785), wk =   0.0036413
        k(   97) = (  -0.1087857   0.0000000   0.1087857), wk =   0.0036413
        k(   98) = (   0.0000000   0.0000000   0.1087857), wk =   0.0018207
        k(   99) = (   0.1120492   0.1087857  -0.0000000), wk =   0.0018207
        k(  100) = (   0.1680738   0.1631785  -0.0543928), wk =   0.0036413
        k(  101) = (   0.2240985   0.2175713  -0.1087857), wk =   0.0036413
        k(  102) = (   0.2801231   0.2719641  -0.1631785), wk =   0.0036413
        k(  103) = (   0.3361477   0.3263570  -0.2175713), wk =   0.0036413
        k(  104) = (  -0.3361477  -0.3263570   0.4351426), wk =   0.0036413
        k(  105) = (  -0.2801231  -0.2719641   0.3807498), wk =   0.0036413
        k(  106) = (  -0.2240985  -0.2175713   0.3263570), wk =   0.0036413
        k(  107) = (  -0.1680738  -0.1631785   0.2719641), wk =   0.0036413
        k(  108) = (  -0.1120492  -0.1087857   0.2175713), wk =   0.0036413
        k(  109) = (  -0.0560246  -0.0543928   0.1631785), wk =   0.0036413
        k(  110) = (   0.0527610  -0.0543928   0.1631785), wk =   0.0036413
        k(  111) = (   0.2208349   0.1087857  -0.0000000), wk =   0.0018207
        k(  112) = (   0.2768595   0.1631785  -0.0543928), wk =   0.0036413
        k(  113) = (   0.3328841   0.2175713  -0.1087857), wk =   0.0036413
        k(  114) = (   0.3889087   0.2719641  -0.1631785), wk =   0.0036413
        k(  115) = (  -0.2833866  -0.3807498   0.4895355), wk =   0.0036413
        k(  116) = (  -0.2273620  -0.3263570   0.4351426), wk =   0.0036413
        k(  117) = (  -0.1713374  -0.2719641   0.3807498), wk =   0.0036413
        k(  118) = (  -0.1153128  -0.2175713   0.3263570), wk =   0.0036413
        k(  119) = (  -0.0592882  -0.1631785   0.2719641), wk =   0.0036413
        k(  120) = (  -0.0032636  -0.1087857   0.2175713), wk =   0.0036413
        k(  121) = (   0.1055221  -0.1087857   0.2175713), wk =   0.0036413
        k(  122) = (   0.1615467  -0.0543928   0.1631785), wk =   0.0036413
        k(  123) = (   0.2175713  -0.0000000   0.1087857), wk =   0.0036413
        k(  124) = (   0.3296205   0.1087857  -0.0000000), wk =   0.0018207
        k(  125) = (   0.3856452   0.1631785  -0.0543928), wk =   0.0036413
        k(  126) = (   0.4416698   0.2175713  -0.1087857), wk =   0.0036413
        k(  127) = (  -0.2306256  -0.4351426   0.5439283), wk =   0.0036413
        k(  128) = (  -0.1746010  -0.3807498   0.4895355), wk =   0.0036413
        k(  129) = (  -0.1185764  -0.3263570   0.4351426), wk =   0.0036413
        k(  130) = (  -0.0625518  -0.2719641   0.3807498), wk =   0.0036413
        k(  131) = (  -0.0065271  -0.2175713   0.3263570), wk =   0.0036413
        k(  132) = (   0.0494975  -0.1631785   0.2719641), wk =   0.0036413
        k(  133) = (   0.1582831  -0.1631785   0.2719641), wk =   0.0036413
        k(  134) = (   0.2143077  -0.1087857   0.2175713), wk =   0.0036413
        k(  135) = (   0.2703324  -0.0543928   0.1631785), wk =   0.0036413
        k(  136) = (   0.3263570   0.0000000   0.1087857), wk =   0.0036413
        k(  137) = (   0.4384062   0.1087857   0.0000000), wk =   0.0018207
        k(  138) = (   0.4944308   0.1631785  -0.0543928), wk =   0.0036413
        k(  139) = (  -0.1778646  -0.4895355   0.5983211), wk =   0.0036413
        k(  140) = (  -0.1218399  -0.4351426   0.5439283), wk =   0.0036413
        k(  141) = (  -0.0658153  -0.3807498   0.4895355), wk =   0.0036413
        k(  142) = (  -0.0097907  -0.3263570   0.4351426), wk =   0.0036413
        k(  143) = (   0.0462339  -0.2719641   0.3807498), wk =   0.0036413
        k(  144) = (   0.1022585  -0.2175713   0.3263570), wk =   0.0036413
        k(  145) = (   0.2110442  -0.2175713   0.3263570), wk =   0.0036413
        k(  146) = (   0.2670688  -0.1631785   0.2719641), wk =   0.0036413
        k(  147) = (   0.3230934  -0.1087857   0.2175713), wk =   0.0036413
        k(  148) = (   0.3791180  -0.0543928   0.1631785), wk =   0.0036413
        k(  149) = (   0.4351426   0.0000000   0.1087857), wk =   0.0036413
        k(  150) = (   0.5471919   0.1087857  -0.0000000), wk =   0.0018207
        k(  151) = (  -0.1251035  -0.5439283   0.6527140), wk =   0.0036413
        k(  152) = (  -0.0690789  -0.4895355   0.5983211), wk =   0.0036413
        k(  153) = (  -0.0130543  -0.4351426   0.5439283), wk =   0.0036413
        k(  154) = (   0.0429703  -0.3807498   0.4895355), wk =   0.0036413
        k(  155) = (   0.0989949  -0.3263570   0.4351426), wk =   0.0036413
        k(  156) = (   0.1550196  -0.2719641   0.3807498), wk =   0.0036413
        k(  157) = (   0.2638052  -0.2719641   0.3807498), wk =   0.0036413
        k(  158) = (   0.3198298  -0.2175713   0.3263570), wk =   0.0036413
        k(  159) = (   0.3758545  -0.1631785   0.2719641), wk =   0.0036413
        k(  160) = (   0.4318791  -0.1087857   0.2175713), wk =   0.0036413
        k(  161) = (   0.4879037  -0.0543928   0.1631785), wk =   0.0036413
        k(  162) = (   0.5439283   0.0000000   0.1087857), wk =   0.0036413
        k(  163) = (  -0.0723425  -0.5983211   0.7071068), wk =   0.0018207
        k(  164) = (  -0.0163178  -0.5439283   0.6527140), wk =   0.0036413
        k(  165) = (   0.0397068  -0.4895355   0.5983211), wk =   0.0036413
        k(  166) = (   0.0957314  -0.4351426   0.5439283), wk =   0.0036413
        k(  167) = (   0.1517560  -0.3807498   0.4895355), wk =   0.0036413
        k(  168) = (   0.2077806  -0.3263570   0.4351426), wk =   0.0036413
        k(  169) = (  -0.3693273   0.3807498  -0.2719641), wk =   0.0036413
        k(  170) = (  -0.3133027   0.4351426  -0.3263570), wk =   0.0036413
        k(  171) = (  -0.2572781   0.4895355  -0.3807498), wk =   0.0036413
        k(  172) = (  -0.2012535   0.5439283  -0.4351426), wk =   0.0036413
        k(  173) = (  -0.1452289   0.5983211  -0.4895355), wk =   0.0036413
        k(  174) = (  -0.0892042   0.6527140  -0.5439283), wk =   0.0036413
        k(  175) = (  -0.0331796   0.7071068  -0.5983211), wk =   0.0036413
        k(  176) = (  -0.6494504   0.1087857  -0.0000000), wk =   0.0018207
        k(  177) = (  -0.5934258   0.1631785  -0.0543928), wk =   0.0036413
        k(  178) = (  -0.5374012   0.2175713  -0.1087857), wk =   0.0036413
        k(  179) = (  -0.4813765   0.2719641  -0.1631785), wk =   0.0036413
        k(  180) = (  -0.4253519   0.3263570  -0.2175713), wk =   0.0036413
        k(  181) = (  -0.3165663   0.3263570  -0.2175713), wk =   0.0036413
        k(  182) = (  -0.2605417   0.3807498  -0.2719641), wk =   0.0036413
        k(  183) = (  -0.2045170   0.4351426  -0.3263570), wk =   0.0036413
        k(  184) = (  -0.1484924   0.4895355  -0.3807498), wk =   0.0036413
        k(  185) = (  -0.0924678   0.5439283  -0.4351426), wk =   0.0036413
        k(  186) = (  -0.0364432   0.5983211  -0.4895355), wk =   0.0036413
        k(  187) = (   0.0195814   0.6527140  -0.5439283), wk =   0.0036413
        k(  188) = (  -0.5406647   0.1087857   0.0000000), wk =   0.0018207
        k(  189) = (  -0.4846401   0.1631785  -0.0543928), wk =   0.0036413
        k(  190) = (  -0.4286155   0.2175713  -0.1087857), wk =   0.0036413
        k(  191) = (  -0.3725909   0.2719641  -0.1631785), wk =   0.0036413
        k(  192) = (  -0.2638052   0.2719641  -0.1631785), wk =   0.0036413
        k(  193) = (  -0.2077806   0.3263570  -0.2175713), wk =   0.0036413
        k(  194) = (  -0.1517560   0.3807498  -0.2719641), wk =   0.0036413
        k(  195) = (  -0.0957314   0.4351426  -0.3263570), wk =   0.0036413
        k(  196) = (  -0.0397068   0.4895355  -0.3807498), wk =   0.0036413
        k(  197) = (   0.0163178   0.5439283  -0.4351426), wk =   0.0036413
        k(  198) = (   0.0723425   0.5983211  -0.4895355), wk =   0.0036413
        k(  199) = (  -0.5999529  -0.0543928   0.1631785), wk =   0.0036413
        k(  200) = (  -0.4318791   0.1087857  -0.0000000), wk =   0.0018207
        k(  201) = (  -0.3758545   0.1631785  -0.0543928), wk =   0.0036413
        k(  202) = (  -0.3198298   0.2175713  -0.1087857), wk =   0.0036413
        k(  203) = (  -0.2110442   0.2175713  -0.1087857), wk =   0.0036413
        k(  204) = (  -0.1550196   0.2719641  -0.1631785), wk =   0.0036413
        k(  205) = (  -0.0989949   0.3263570  -0.2175713), wk =   0.0036413
        k(  206) = (  -0.0429703   0.3807498  -0.2719641), wk =   0.0036413
        k(  207) = (   0.0130543   0.4351426  -0.3263570), wk =   0.0036413
        k(  208) = (   0.0690789   0.4895355  -0.3807498), wk =   0.0036413
        k(  209) = (   0.1251035   0.5439283  -0.4351426), wk =   0.0036413
        k(  210) = (  -0.5471919  -0.1087857   0.2175713), wk =   0.0036413
        k(  211) = (  -0.4911672  -0.0543928   0.1631785), wk =   0.0036413
        k(  212) = (  -0.3230934   0.1087857   0.0000000), wk =   0.0018207
        k(  213) = (  -0.2670688   0.1631785  -0.0543928), wk =   0.0036413
        k(  214) = (  -0.1582831   0.1631785  -0.0543928), wk =   0.0036413
        k(  215) = (  -0.1022585   0.2175713  -0.1087857), wk =   0.0036413
        k(  216) = (  -0.0462339   0.2719641  -0.1631785), wk =   0.0036413
        k(  217) = (   0.0097907   0.3263570  -0.2175713), wk =   0.0036413
        k(  218) = (   0.0658153   0.3807498  -0.2719641), wk =   0.0036413
        k(  219) = (   0.1218399   0.4351426  -0.3263570), wk =   0.0036413
        k(  220) = (   0.1778646   0.4895355  -0.3807498), wk =   0.0036413
        k(  221) = (  -0.4944308  -0.1631785   0.2719641), wk =   0.0036413
        k(  222) = (  -0.4384062  -0.1087857   0.2175713), wk =   0.0036413
        k(  223) = (  -0.3823816  -0.0543928   0.1631785), wk =   0.0036413
        k(  224) = (  -0.2143077   0.1087857  -0.0000000), wk =   0.0018207
        k(  225) = (  -0.1055221   0.1087857   0.0000000), wk =   0.0018207
        k(  226) = (  -0.0494975   0.1631785  -0.0543928), wk =   0.0036413
        k(  227) = (   0.0065271   0.2175713  -0.1087857), wk =   0.0036413
        k(  228) = (   0.0625518   0.2719641  -0.1631785), wk =   0.0036413
        k(  229) = (   0.1185764   0.3263570  -0.2175713), wk =   0.0036413
        k(  230) = (   0.1746010   0.3807498  -0.2719641), wk =   0.0036413
        k(  231) = (   0.2306256   0.4351426  -0.3263570), wk =   0.0036413
        k(  232) = (  -0.4416698  -0.2175713   0.3263570), wk =   0.0036413
        k(  233) = (  -0.3856452  -0.1631785   0.2719641), wk =   0.0036413
        k(  234) = (  -0.3296205  -0.1087857   0.2175713), wk =   0.0036413
        k(  235) = (  -0.2735959  -0.0543928   0.1631785), wk =   0.0036413
        k(  236) = (   0.0065271   0.2175713  -0.0000000), wk =   0.0018207
        k(  237) = (   0.0625518   0.2719641  -0.0543928), wk =   0.0036413
        k(  238) = (   0.1185764   0.3263570  -0.1087857), wk =   0.0036413
        k(  239) = (   0.1746010   0.3807498  -0.1631785), wk =   0.0036413
        k(  240) = (   0.2306256   0.4351426  -0.2175713), wk =   0.0036413
        k(  241) = (  -0.4416698  -0.2175713   0.4351426), wk =   0.0036413
        k(  242) = (  -0.3856452  -0.1631785   0.3807498), wk =   0.0036413
        k(  243) = (  -0.3296205  -0.1087857   0.3263570), wk =   0.0036413
        k(  244) = (  -0.2735959  -0.0543928   0.2719641), wk =   0.0036413
        k(  245) = (  -0.2175713   0.0000000   0.2175713), wk =   0.0036413
        k(  246) = (   0.1153128   0.2175713  -0.0000000), wk =   0.0018207
        k(  247) = (   0.1713374   0.2719641  -0.0543928), wk =   0.0036413
        k(  248) = (   0.2273620   0.3263570  -0.1087857), wk =   0.0036413
        k(  249) = (   0.2833866   0.3807498  -0.1631785), wk =   0.0036413
        k(  250) = (  -0.3889087  -0.2719641   0.4895355), wk =   0.0036413
        k(  251) = (  -0.3328841  -0.2175713   0.4351426), wk =   0.0036413
        k(  252) = (  -0.2768595  -0.1631785   0.3807498), wk =   0.0036413
        k(  253) = (  -0.2208349  -0.1087857   0.3263570), wk =   0.0036413
        k(  254) = (  -0.1648103  -0.0543928   0.2719641), wk =   0.0036413
        k(  255) = (  -0.1087857   0.0000000   0.2175713), wk =   0.0036413
        k(  256) = (   0.0000000   0.0000000   0.2175713), wk =   0.0018207
        k(  257) = (   0.2240985   0.2175713  -0.0000000), wk =   0.0018207
        k(  258) = (   0.2801231   0.2719641  -0.0543928), wk =   0.0036413
        k(  259) = (   0.3361477   0.3263570  -0.1087857), wk =   0.0036413
        k(  260) = (  -0.3361477  -0.3263570   0.5439283), wk =   0.0036413
        k(  261) = (  -0.2801231  -0.2719641   0.4895355), wk =   0.0036413
        k(  262) = (  -0.2240985  -0.2175713   0.4351426), wk =   0.0036413
        k(  263) = (  -0.1680738  -0.1631785   0.3807498), wk =   0.0036413
        k(  264) = (  -0.1120492  -0.1087857   0.3263570), wk =   0.0036413
        k(  265) = (  -0.0560246  -0.0543928   0.2719641), wk =   0.0036413
        k(  266) = (   0.0527610  -0.0543928   0.2719641), wk =   0.0036413
        k(  267) = (   0.3328841   0.2175713   0.0000000), wk =   0.0018207
        k(  268) = (   0.3889087   0.2719641  -0.0543928), wk =   0.0036413
        k(  269) = (  -0.2833866  -0.3807498   0.5983211), wk =   0.0036413
        k(  270) = (  -0.2273620  -0.3263570   0.5439283), wk =   0.0036413
        k(  271) = (  -0.1713374  -0.2719641   0.4895355), wk =   0.0036413
        k(  272) = (  -0.1153128  -0.2175713   0.4351426), wk =   0.0036413
        k(  273) = (  -0.0592882  -0.1631785   0.3807498), wk =   0.0036413
        k(  274) = (  -0.0032636  -0.1087857   0.3263570), wk =   0.0036413
        k(  275) = (   0.1055221  -0.1087857   0.3263570), wk =   0.0036413
        k(  276) = (   0.1615467  -0.0543928   0.2719641), wk =   0.0036413
        k(  277) = (   0.4416698   0.2175713  -0.0000000), wk =   0.0018207
        k(  278) = (  -0.2306256  -0.4351426   0.6527140), wk =   0.0036413
        k(  279) = (  -0.1746010  -0.3807498   0.5983211), wk =   0.0036413
        k(  280) = (  -0.1185764  -0.3263570   0.5439283), wk =   0.0036413
        k(  281) = (  -0.0625518  -0.2719641   0.4895355), wk =   0.0036413
        k(  282) = (  -0.0065271  -0.2175713   0.4351426), wk =   0.0036413
        k(  283) = (   0.0494975  -0.1631785   0.3807498), wk =   0.0036413
        k(  284) = (   0.1582831  -0.1631785   0.3807498), wk =   0.0036413
        k(  285) = (   0.2143077  -0.1087857   0.3263570), wk =   0.0036413
        k(  286) = (   0.2703324  -0.0543928   0.2719641), wk =   0.0036413
        k(  287) = (   0.3263570   0.0000000   0.2175713), wk =   0.0036413
        k(  288) = (  -0.1778646  -0.4895355   0.7071068), wk =   0.0018207
        k(  289) = (  -0.1218399  -0.4351426   0.6527140), wk =   0.0036413
        k(  290) = (  -0.0658153  -0.3807498   0.5983211), wk =   0.0036413
        k(  291) = (  -0.0097907  -0.3263570   0.5439283), wk =   0.0036413
        k(  292) = (   0.0462339  -0.2719641   0.4895355), wk =   0.0036413
        k(  293) = (   0.1022585  -0.2175713   0.4351426), wk =   0.0036413
        k(  294) = (   0.2110442  -0.2175713   0.4351426), wk =   0.0036413
        k(  295) = (   0.2670688  -0.1631785   0.3807498), wk =   0.0036413
        k(  296) = (   0.3230934  -0.1087857   0.3263570), wk =   0.0036413
        k(  297) = (   0.3791180  -0.0543928   0.2719641), wk =   0.0036413
        k(  298) = (   0.4351426  -0.0000000   0.2175713), wk =   0.0036413
        k(  299) = (  -0.0690789  -0.4895355   0.7071068), wk =   0.0018207
        k(  300) = (  -0.0130543  -0.4351426   0.6527140), wk =   0.0036413
        k(  301) = (   0.0429703  -0.3807498   0.5983211), wk =   0.0036413
        k(  302) = (   0.0989949  -0.3263570   0.5439283), wk =   0.0036413
        k(  303) = (   0.1550196  -0.2719641   0.4895355), wk =   0.0036413
        k(  304) = (  -0.4220884   0.4351426  -0.2175713), wk =   0.0036413
        k(  305) = (  -0.3660637   0.4895355  -0.2719641), wk =   0.0036413
        k(  306) = (  -0.3100391   0.5439283  -0.3263570), wk =   0.0036413
        k(  307) = (  -0.2540145   0.5983211  -0.3807498), wk =   0.0036413
        k(  308) = (  -0.1979899   0.6527140  -0.4351426), wk =   0.0036413
        k(  309) = (  -0.1419653   0.7071068  -0.4895355), wk =   0.0036413
        k(  310) = (  -0.6461868   0.2175713  -0.0000000), wk =   0.0018207
        k(  311) = (  -0.5901622   0.2719641  -0.0543928), wk =   0.0036413
        k(  312) = (  -0.5341376   0.3263570  -0.1087857), wk =   0.0036413
        k(  313) = (  -0.4781130   0.3807498  -0.1631785), wk =   0.0036413
        k(  314) = (  -0.3693273   0.3807498  -0.1631785), wk =   0.0036413
        k(  315) = (  -0.3133027   0.4351426  -0.2175713), wk =   0.0036413
        k(  316) = (  -0.2572781   0.4895355  -0.2719641), wk =   0.0036413
        k(  317) = (  -0.2012535   0.5439283  -0.3263570), wk =   0.0036413
        k(  318) = (  -0.1452289   0.5983211  -0.3807498), wk =   0.0036413
        k(  319) = (  -0.0892042   0.6527140  -0.4351426), wk =   0.0036413
        k(  320) = (  -0.0331796   0.7071068  -0.4895355), wk =   0.0036413
        k(  321) = (  -0.5374012   0.2175713  -0.0000000), wk =   0.0018207
        k(  322) = (  -0.4813765   0.2719641  -0.0543928), wk =   0.0036413
        k(  323) = (  -0.4253519   0.3263570  -0.1087857), wk =   0.0036413
        k(  324) = (  -0.3165663   0.3263570  -0.1087857), wk =   0.0036413
        k(  325) = (  -0.2605417   0.3807498  -0.1631785), wk =   0.0036413
        k(  326) = (  -0.2045170   0.4351426  -0.2175713), wk =   0.0036413
        k(  327) = (  -0.1484924   0.4895355  -0.2719641), wk =   0.0036413
        k(  328) = (  -0.0924678   0.5439283  -0.3263570), wk =   0.0036413
        k(  329) = (  -0.0364432   0.5983211  -0.3807498), wk =   0.0036413
        k(  330) = (   0.0195814   0.6527140  -0.4351426), wk =   0.0036413
        k(  331) = (  -0.4286155   0.2175713  -0.0000000), wk =   0.0018207
        k(  332) = (  -0.3725909   0.2719641  -0.0543928), wk =   0.0036413
        k(  333) = (  -0.2638052   0.2719641  -0.0543928), wk =   0.0036413
        k(  334) = (  -0.2077806   0.3263570  -0.1087857), wk =   0.0036413
        k(  335) = (  -0.1517560   0.3807498  -0.1631785), wk =   0.0036413
        k(  336) = (  -0.0957314   0.4351426  -0.2175713), wk =   0.0036413
        k(  337) = (  -0.0397068   0.4895355  -0.2719641), wk =   0.0036413
        k(  338) = (   0.0163178   0.5439283  -0.3263570), wk =   0.0036413
        k(  339) = (   0.0723425   0.5983211  -0.3807498), wk =   0.0036413
        k(  340) = (  -0.5999529  -0.0543928   0.2719641), wk =   0.0036413
        k(  341) = (  -0.3198298   0.2175713  -0.0000000), wk =   0.0018207
        k(  342) = (  -0.2110442   0.2175713  -0.0000000), wk =   0.0018207
        k(  343) = (  -0.1550196   0.2719641  -0.0543928), wk =   0.0036413
        k(  344) = (  -0.0989949   0.3263570  -0.1087857), wk =   0.0036413
        k(  345) = (  -0.0429703   0.3807498  -0.1631785), wk =   0.0036413
        k(  346) = (   0.0130543   0.4351426  -0.2175713), wk =   0.0036413
        k(  347) = (   0.0690789   0.4895355  -0.2719641), wk =   0.0036413
        k(  348) = (   0.1251035   0.5439283  -0.3263570), wk =   0.0036413
        k(  349) = (  -0.5471919  -0.1087857   0.3263570), wk =   0.0036413
        k(  350) = (  -0.4911672  -0.0543928   0.2719641), wk =   0.0036413
        k(  351) = (  -0.1022585   0.2175713   0.0000000), wk =   0.0018207
        k(  352) = (  -0.0462339   0.2719641  -0.0543928), wk =   0.0036413
        k(  353) = (   0.0097907   0.3263570  -0.1087857), wk =   0.0036413
        k(  354) = (   0.0658153   0.3807498  -0.1631785), wk =   0.0036413
        k(  355) = (   0.1218399   0.4351426  -0.2175713), wk =   0.0036413
        k(  356) = (   0.1778646   0.4895355  -0.2719641), wk =   0.0036413
        k(  357) = (  -0.4944308  -0.1631785   0.3807498), wk =   0.0036413
        k(  358) = (  -0.4384062  -0.1087857   0.3263570), wk =   0.0036413
        k(  359) = (  -0.3823816  -0.0543928   0.2719641), wk =   0.0036413
        k(  360) = (   0.0097907   0.3263570  -0.0000000), wk =   0.0018207
        k(  361) = (   0.0658153   0.3807498  -0.0543928), wk =   0.0036413
        k(  362) = (   0.1218399   0.4351426  -0.1087857), wk =   0.0036413
        k(  363) = (   0.1778646   0.4895355  -0.1631785), wk =   0.0036413
        k(  364) = (  -0.4944308  -0.1631785   0.4895355), wk =   0.0036413
        k(  365) = (  -0.4384062  -0.1087857   0.4351426), wk =   0.0036413
        k(  366) = (  -0.3823816  -0.0543928   0.3807498), wk =   0.0036413
        k(  367) = (  -0.3263570   0.0000000   0.3263570), wk =   0.0036413
        k(  368) = (   0.1185764   0.3263570  -0.0000000), wk =   0.0018207
        k(  369) = (   0.1746010   0.3807498  -0.0543928), wk =   0.0036413
        k(  370) = (   0.2306256   0.4351426  -0.1087857), wk =   0.0036413
        k(  371) = (  -0.4416698  -0.2175713   0.5439283), wk =   0.0036413
        k(  372) = (  -0.3856452  -0.1631785   0.4895355), wk =   0.0036413
        k(  373) = (  -0.3296205  -0.1087857   0.4351426), wk =   0.0036413
        k(  374) = (  -0.2735959  -0.0543928   0.3807498), wk =   0.0036413
        k(  375) = (  -0.2175713   0.0000000   0.3263570), wk =   0.0036413
        k(  376) = (   0.2273620   0.3263570  -0.0000000), wk =   0.0018207
        k(  377) = (   0.2833866   0.3807498  -0.0543928), wk =   0.0036413
        k(  378) = (  -0.3889087  -0.2719641   0.5983211), wk =   0.0036413
        k(  379) = (  -0.3328841  -0.2175713   0.5439283), wk =   0.0036413
        k(  380) = (  -0.2768595  -0.1631785   0.4895355), wk =   0.0036413
        k(  381) = (  -0.2208349  -0.1087857   0.4351426), wk =   0.0036413
        k(  382) = (  -0.1648103  -0.0543928   0.3807498), wk =   0.0036413
        k(  383) = (  -0.1087857   0.0000000   0.3263570), wk =   0.0036413
        k(  384) = (   0.0000000   0.0000000   0.3263570), wk =   0.0018207
        k(  385) = (   0.3361477   0.3263570  -0.0000000), wk =   0.0018207
        k(  386) = (  -0.3361477  -0.3263570   0.6527140), wk =   0.0036413
        k(  387) = (  -0.2801231  -0.2719641   0.5983211), wk =   0.0036413
        k(  388) = (  -0.2240985  -0.2175713   0.5439283), wk =   0.0036413
        k(  389) = (  -0.1680738  -0.1631785   0.4895355), wk =   0.0036413
        k(  390) = (  -0.1120492  -0.1087857   0.4351426), wk =   0.0036413
        k(  391) = (  -0.0560246  -0.0543928   0.3807498), wk =   0.0036413
        k(  392) = (   0.0527610  -0.0543928   0.3807498), wk =   0.0036413
        k(  393) = (  -0.2833866  -0.3807498   0.7071068), wk =   0.0018207
        k(  394) = (  -0.2273620  -0.3263570   0.6527140), wk =   0.0036413
        k(  395) = (  -0.1713374  -0.2719641   0.5983211), wk =   0.0036413
        k(  396) = (  -0.1153128  -0.2175713   0.5439283), wk =   0.0036413
        k(  397) = (  -0.0592882  -0.1631785   0.4895355), wk =   0.0036413
        k(  398) = (  -0.0032636  -0.1087857   0.4351426), wk =   0.0036413
        k(  399) = (   0.1055221  -0.1087857   0.4351426), wk =   0.0036413
        k(  400) = (   0.1615467  -0.0543928   0.3807498), wk =   0.0036413
        k(  401) = (  -0.1746010  -0.3807498   0.7071068), wk =   0.0018207
        k(  402) = (  -0.1185764  -0.3263570   0.6527140), wk =   0.0036413
        k(  403) = (  -0.0625518  -0.2719641   0.5983211), wk =   0.0036413
        k(  404) = (  -0.0065271  -0.2175713   0.5439283), wk =   0.0036413
        k(  405) = (   0.0494975  -0.1631785   0.4895355), wk =   0.0036413
        k(  406) = (   0.1582831  -0.1631785   0.4895355), wk =   0.0036413
        k(  407) = (   0.2143077  -0.1087857   0.4351426), wk =   0.0036413
        k(  408) = (   0.2703324  -0.0543928   0.3807498), wk =   0.0036413
        k(  409) = (  -0.0658153  -0.3807498   0.7071068), wk =   0.0018207
        k(  410) = (  -0.0097907  -0.3263570   0.6527140), wk =   0.0036413
        k(  411) = (   0.0462339  -0.2719641   0.5983211), wk =   0.0036413
        k(  412) = (   0.1022585  -0.2175713   0.5439283), wk =   0.0036413
        k(  413) = (  -0.4748494   0.4895355  -0.1631785), wk =   0.0036413
        k(  414) = (  -0.4188248   0.5439283  -0.2175713), wk =   0.0036413
        k(  415) = (  -0.3628002   0.5983211  -0.2719641), wk =   0.0036413
        k(  416) = (  -0.3067756   0.6527140  -0.3263570), wk =   0.0036413
        k(  417) = (  -0.2507509   0.7071068  -0.3807498), wk =   0.0036413
        k(  418) = (  -0.6429232   0.3263570  -0.0000000), wk =   0.0018207
        k(  419) = (  -0.5868986   0.3807498  -0.0543928), wk =   0.0036413
        k(  420) = (  -0.5308740   0.4351426  -0.1087857), wk =   0.0036413
        k(  421) = (  -0.4220884   0.4351426  -0.1087857), wk =   0.0036413
        k(  422) = (  -0.3660637   0.4895355  -0.1631785), wk =   0.0036413
        k(  423) = (  -0.3100391   0.5439283  -0.2175713), wk =   0.0036413
        k(  424) = (  -0.2540145   0.5983211  -0.2719641), wk =   0.0036413
        k(  425) = (  -0.1979899   0.6527140  -0.3263570), wk =   0.0036413
        k(  426) = (  -0.1419653   0.7071068  -0.3807498), wk =   0.0036413
        k(  427) = (  -0.5341376   0.3263570   0.0000000), wk =   0.0018207
        k(  428) = (  -0.4781130   0.3807498  -0.0543928), wk =   0.0036413
        k(  429) = (  -0.3693273   0.3807498  -0.0543928), wk =   0.0036413
        k(  430) = (  -0.3133027   0.4351426  -0.1087857), wk =   0.0036413
        k(  431) = (  -0.2572781   0.4895355  -0.1631785), wk =   0.0036413
        k(  432) = (  -0.2012535   0.5439283  -0.2175713), wk =   0.0036413
        k(  433) = (  -0.1452289   0.5983211  -0.2719641), wk =   0.0036413
        k(  434) = (  -0.0892042   0.6527140  -0.3263570), wk =   0.0036413
        k(  435) = (  -0.0331796   0.7071068  -0.3807498), wk =   0.0036413
        k(  436) = (  -0.4253519   0.3263570  -0.0000000), wk =   0.0018207
        k(  437) = (  -0.3165663   0.3263570   0.0000000), wk =   0.0018207
        k(  438) = (  -0.2605417   0.3807498  -0.0543928), wk =   0.0036413
        k(  439) = (  -0.2045170   0.4351426  -0.1087857), wk =   0.0036413
        k(  440) = (  -0.1484924   0.4895355  -0.1631785), wk =   0.0036413
        k(  441) = (  -0.0924678   0.5439283  -0.2175713), wk =   0.0036413
        k(  442) = (  -0.0364432   0.5983211  -0.2719641), wk =   0.0036413
        k(  443) = (   0.0195814   0.6527140  -0.3263570), wk =   0.0036413
        k(  444) = (  -0.2077806   0.3263570  -0.0000000), wk =   0.0018207
        k(  445) = (  -0.1517560   0.3807498  -0.0543928), wk =   0.0036413
        k(  446) = (  -0.0957314   0.4351426  -0.1087857), wk =   0.0036413
        k(  447) = (  -0.0397068   0.4895355  -0.1631785), wk =   0.0036413
        k(  448) = (   0.0163178   0.5439283  -0.2175713), wk =   0.0036413
        k(  449) = (   0.0723425   0.5983211  -0.2719641), wk =   0.0036413
        k(  450) = (  -0.5999529  -0.0543928   0.3807498), wk =   0.0036413
        k(  451) = (  -0.0989949   0.3263570  -0.0000000), wk =   0.0018207
        k(  452) = (  -0.0429703   0.3807498  -0.0543928), wk =   0.0036413
        k(  453) = (   0.0130543   0.4351426  -0.1087857), wk =   0.0036413
        k(  454) = (   0.0690789   0.4895355  -0.1631785), wk =   0.0036413
        k(  455) = (   0.1251035   0.5439283  -0.2175713), wk =   0.0036413
        k(  456) = (  -0.5471919  -0.1087857   0.4351426), wk =   0.0036413
        k(  457) = (  -0.4911672  -0.0543928   0.3807498), wk =   0.0036413
        k(  458) = (   0.0130543   0.4351426  -0.0000000), wk =   0.0018207
        k(  459) = (   0.0690789   0.4895355  -0.0543928), wk =   0.0036413
        k(  460) = (   0.1251035   0.5439283  -0.1087857), wk =   0.0036413
        k(  461) = (  -0.5471919  -0.1087857   0.5439283), wk =   0.0036413
        k(  462) = (  -0.4911672  -0.0543928   0.4895355), wk =   0.0036413
        k(  463) = (  -0.4351426   0.0000000   0.4351426), wk =   0.0036413
        k(  464) = (   0.1218399   0.4351426  -0.0000000), wk =   0.0018207
        k(  465) = (   0.1778646   0.4895355  -0.0543928), wk =   0.0036413
        k(  466) = (  -0.4944308  -0.1631785   0.5983211), wk =   0.0036413
        k(  467) = (  -0.4384062  -0.1087857   0.5439283), wk =   0.0036413
        k(  468) = (  -0.3823816  -0.0543928   0.4895355), wk =   0.0036413
        k(  469) = (  -0.3263570   0.0000000   0.4351426), wk =   0.0036413
        k(  470) = (   0.2306256   0.4351426  -0.0000000), wk =   0.0018207
        k(  471) = (  -0.4416698  -0.2175713   0.6527140), wk =   0.0036413
        k(  472) = (  -0.3856452  -0.1631785   0.5983211), wk =   0.0036413
        k(  473) = (  -0.3296205  -0.1087857   0.5439283), wk =   0.0036413
        k(  474) = (  -0.2735959  -0.0543928   0.4895355), wk =   0.0036413
        k(  475) = (  -0.2175713   0.0000000   0.4351426), wk =   0.0036413
        k(  476) = (  -0.3889087  -0.2719641   0.7071068), wk =   0.0018207
        k(  477) = (  -0.3328841  -0.2175713   0.6527140), wk =   0.0036413
        k(  478) = (  -0.2768595  -0.1631785   0.5983211), wk =   0.0036413
        k(  479) = (  -0.2208349  -0.1087857   0.5439283), wk =   0.0036413
        k(  480) = (  -0.1648103  -0.0543928   0.4895355), wk =   0.0036413
        k(  481) = (  -0.1087857   0.0000000   0.4351426), wk =   0.0036413
        k(  482) = (   0.0000000   0.0000000   0.4351426), wk =   0.0018207
        k(  483) = (  -0.2801231  -0.2719641   0.7071068), wk =   0.0018207
        k(  484) = (  -0.2240985  -0.2175713   0.6527140), wk =   0.0036413
        k(  485) = (  -0.1680738  -0.1631785   0.5983211), wk =   0.0036413
        k(  486) = (  -0.1120492  -0.1087857   0.5439283), wk =   0.0036413
        k(  487) = (  -0.0560246  -0.0543928   0.4895355), wk =   0.0036413
        k(  488) = (   0.0527610  -0.0543928   0.4895355), wk =   0.0036413
        k(  489) = (  -0.1713374  -0.2719641   0.7071068), wk =   0.0018207
        k(  490) = (  -0.1153128  -0.2175713   0.6527140), wk =   0.0036413
        k(  491) = (  -0.0592882  -0.1631785   0.5983211), wk =   0.0036413
        k(  492) = (  -0.0032636  -0.1087857   0.5439283), wk =   0.0036413
        k(  493) = (   0.1055221  -0.1087857   0.5439283), wk =   0.0036413
        k(  494) = (   0.1615467  -0.0543928   0.4895355), wk =   0.0036413
        k(  495) = (  -0.0625518  -0.2719641   0.7071068), wk =   0.0018207
        k(  496) = (  -0.0065271  -0.2175713   0.6527140), wk =   0.0036413
        k(  497) = (   0.0494975  -0.1631785   0.5983211), wk =   0.0036413
        k(  498) = (  -0.5276104   0.5439283  -0.1087857), wk =   0.0036413
        k(  499) = (  -0.4715858   0.5983211  -0.1631785), wk =   0.0036413
        k(  500) = (  -0.4155612   0.6527140  -0.2175713), wk =   0.0036413
        k(  501) = (  -0.6396597   0.4351426  -0.0000000), wk =   0.0018207
        k(  502) = (  -0.5836351   0.4895355  -0.0543928), wk =   0.0036413
        k(  503) = (  -0.4748494   0.4895355  -0.0543928), wk =   0.0036413
        k(  504) = (  -0.4188248   0.5439283  -0.1087857), wk =   0.0036413
        k(  505) = (  -0.3628002   0.5983211  -0.1631785), wk =   0.0036413
        k(  506) = (  -0.3067756   0.6527140  -0.2175713), wk =   0.0036413
        k(  507) = (  -0.5308740   0.4351426  -0.0000000), wk =   0.0018207
        k(  508) = (  -0.4220884   0.4351426  -0.0000000), wk =   0.0018207
        k(  509) = (  -0.3660637   0.4895355  -0.0543928), wk =   0.0036413
        k(  510) = (  -0.3100391   0.5439283  -0.1087857), wk =   0.0036413
        k(  511) = (  -0.2540145   0.5983211  -0.1631785), wk =   0.0036413
        k(  512) = (  -0.1979899   0.6527140  -0.2175713), wk =   0.0036413
        k(  513) = (  -0.1419653   0.7071068  -0.2719641), wk =   0.0036413
        k(  514) = (  -0.3133027   0.4351426  -0.0000000), wk =   0.0018207
        k(  515) = (  -0.2572781   0.4895355  -0.0543928), wk =   0.0036413
        k(  516) = (  -0.2012535   0.5439283  -0.1087857), wk =   0.0036413
        k(  517) = (  -0.1452289   0.5983211  -0.1631785), wk =   0.0036413
        k(  518) = (  -0.0892042   0.6527140  -0.2175713), wk =   0.0036413
        k(  519) = (  -0.0331796   0.7071068  -0.2719641), wk =   0.0036413
        k(  520) = (  -0.2045170   0.4351426  -0.0000000), wk =   0.0018207
        k(  521) = (  -0.1484924   0.4895355  -0.0543928), wk =   0.0036413
        k(  522) = (  -0.0924678   0.5439283  -0.1087857), wk =   0.0036413
        k(  523) = (  -0.0364432   0.5983211  -0.1631785), wk =   0.0036413
        k(  524) = (   0.0195814   0.6527140  -0.2175713), wk =   0.0036413
        k(  525) = (  -0.0957314   0.4351426  -0.0000000), wk =   0.0018207
        k(  526) = (  -0.0397068   0.4895355  -0.0543928), wk =   0.0036413
        k(  527) = (   0.0163178   0.5439283  -0.1087857), wk =   0.0036413
        k(  528) = (   0.0723425   0.5983211  -0.1631785), wk =   0.0036413
        k(  529) = (  -0.5999529  -0.0543928   0.4895355), wk =   0.0036413
        k(  530) = (   0.0163178   0.5439283  -0.0000000), wk =   0.0018207
        k(  531) = (   0.0723425   0.5983211  -0.0543928), wk =   0.0036413
        k(  532) = (  -0.5999529  -0.0543928   0.5983211), wk =   0.0036413
        k(  533) = (  -0.5439283   0.0000000   0.5439283), wk =   0.0036413
        k(  534) = (   0.1251035   0.5439283  -0.0000000), wk =   0.0018207
        k(  535) = (  -0.5471919  -0.1087857   0.6527140), wk =   0.0036413
        k(  536) = (  -0.4911672  -0.0543928   0.5983211), wk =   0.0036413
        k(  537) = (  -0.4351426   0.0000000   0.5439283), wk =   0.0036413
        k(  538) = (  -0.4944308  -0.1631785   0.7071068), wk =   0.0018207
        k(  539) = (  -0.4384062  -0.1087857   0.6527140), wk =   0.0036413
        k(  540) = (  -0.3823816  -0.0543928   0.5983211), wk =   0.0036413
        k(  541) = (  -0.3263570   0.0000000   0.5439283), wk =   0.0036413
        k(  542) = (  -0.3856452  -0.1631785   0.7071068), wk =   0.0018207
        k(  543) = (  -0.3296205  -0.1087857   0.6527140), wk =   0.0036413
        k(  544) = (  -0.2735959  -0.0543928   0.5983211), wk =   0.0036413
        k(  545) = (  -0.2175713  -0.0000000   0.5439283), wk =   0.0036413
        k(  546) = (  -0.2768595  -0.1631785   0.7071068), wk =   0.0018207
        k(  547) = (  -0.2208349  -0.1087857   0.6527140), wk =   0.0036413
        k(  548) = (  -0.1648103  -0.0543928   0.5983211), wk =   0.0036413
        k(  549) = (  -0.1087857   0.0000000   0.5439283), wk =   0.0036413
        k(  550) = (   0.0000000   0.0000000   0.5439283), wk =   0.0018207
        k(  551) = (  -0.1680738  -0.1631785   0.7071068), wk =   0.0018207
        k(  552) = (  -0.1120492  -0.1087857   0.6527140), wk =   0.0036413
        k(  553) = (  -0.0560246  -0.0543928   0.5983211), wk =   0.0036413
        k(  554) = (   0.0527610  -0.0543928   0.5983211), wk =   0.0036413
        k(  555) = (  -0.0592882  -0.1631785   0.7071068), wk =   0.0018207
        k(  556) = (  -0.0032636  -0.1087857   0.6527140), wk =   0.0036413
        k(  557) = (  -0.5803715   0.5983211  -0.0543928), wk =   0.0036413
        k(  558) = (  -0.5243469   0.6527140  -0.1087857), wk =   0.0036413
        k(  559) = (  -0.6363961   0.5439283  -0.0000000), wk =   0.0018207
        k(  560) = (  -0.5276104   0.5439283  -0.0000000), wk =   0.0018207
        k(  561) = (  -0.4715858   0.5983211  -0.0543928), wk =   0.0036413
        k(  562) = (  -0.4155612   0.6527140  -0.1087857), wk =   0.0036413
        k(  563) = (  -0.4188248   0.5439283  -0.0000000), wk =   0.0018207
        k(  564) = (  -0.3628002   0.5983211  -0.0543928), wk =   0.0036413
        k(  565) = (  -0.3067756   0.6527140  -0.1087857), wk =   0.0036413
        k(  566) = (  -0.3100391   0.5439283  -0.0000000), wk =   0.0018207
        k(  567) = (  -0.2540145   0.5983211  -0.0543928), wk =   0.0036413
        k(  568) = (  -0.1979899   0.6527140  -0.1087857), wk =   0.0036413
        k(  569) = (  -0.2012535   0.5439283  -0.0000000), wk =   0.0018207
        k(  570) = (  -0.1452289   0.5983211  -0.0543928), wk =   0.0036413
        k(  571) = (  -0.0892042   0.6527140  -0.1087857), wk =   0.0036413
        k(  572) = (  -0.0331796   0.7071068  -0.1631785), wk =   0.0036413
        k(  573) = (  -0.0924678   0.5439283  -0.0000000), wk =   0.0018207
        k(  574) = (  -0.0364432   0.5983211  -0.0543928), wk =   0.0036413
        k(  575) = (   0.0195814   0.6527140  -0.1087857), wk =   0.0036413
        k(  576) = (   0.0195814   0.6527140  -0.0000000), wk =   0.0018207
        k(  577) = (  -0.6527140   0.0000000   0.6527140), wk =   0.0036413
        k(  578) = (  -0.5999529  -0.0543928   0.7071068), wk =   0.0018207
        k(  579) = (  -0.5439283   0.0000000   0.6527140), wk =   0.0036413
        k(  580) = (  -0.4911672  -0.0543928   0.7071068), wk =   0.0018207
        k(  581) = (  -0.4351426   0.0000000   0.6527140), wk =   0.0036413
        k(  582) = (  -0.3823816  -0.0543928   0.7071068), wk =   0.0018207
        k(  583) = (  -0.3263570   0.0000000   0.6527140), wk =   0.0036413
        k(  584) = (  -0.2735959  -0.0543928   0.7071068), wk =   0.0018207
        k(  585) = (  -0.2175713   0.0000000   0.6527140), wk =   0.0036413
        k(  586) = (  -0.1648103  -0.0543928   0.7071068), wk =   0.0018207
        k(  587) = (  -0.1087857   0.0000000   0.6527140), wk =   0.0036413
        k(  588) = (   0.0000000   0.0000000   0.6527140), wk =   0.0018207
        k(  589) = (  -0.0560246  -0.0543928   0.7071068), wk =   0.0018207
        k(  590) = (  -0.6331325   0.6527140  -0.0000000), wk =   0.0018207
        k(  591) = (  -0.5243469   0.6527140  -0.0000000), wk =   0.0018207
        k(  592) = (  -0.4155612   0.6527140  -0.0000000), wk =   0.0018207
        k(  593) = (  -0.3067756   0.6527140  -0.0000000), wk =   0.0018207
        k(  594) = (  -0.1979899   0.6527140  -0.0000000), wk =   0.0018207
        k(  595) = (  -0.0892042   0.6527140  -0.0000000), wk =   0.0018207

                       cryst. coord.
        k(    1) = (   0.0000000   0.0000000   0.0000000), wk =   0.0009103
        k(    2) = (   0.0000000  -0.0000000   0.0769231), wk =   0.0036413
        k(    3) = (   0.0000000  -0.0000000   0.1538462), wk =   0.0036413
        k(    4) = (   0.0000000  -0.0000000   0.2307692), wk =   0.0036413
        k(    5) = (   0.0000000  -0.0000000   0.3076923), wk =   0.0036413
        k(    6) = (   0.0000000   0.0000000   0.3846154), wk =   0.0036413
        k(    7) = (   0.0000000  -0.0000000   0.4615385), wk =   0.0036413
        k(    8) = (   0.0000000   0.0769231  -0.0000000), wk =   0.0036413
        k(    9) = (   0.0000000   0.0769231   0.0769231), wk =   0.0018207
        k(   10) = (   0.0000000   0.0769231   0.1538462), wk =   0.0036413
        k(   11) = (   0.0000000   0.0769231   0.2307692), wk =   0.0036413
        k(   12) = (   0.0000000   0.0769231   0.3076923), wk =   0.0036413
        k(   13) = (   0.0000000   0.0769231   0.3846154), wk =   0.0036413
        k(   14) = (   0.0000000   0.0769231   0.4615385), wk =   0.0036413
        k(   15) = (   0.0000000   0.0769231  -0.4615385), wk =   0.0036413
        k(   16) = (   0.0000000   0.0769231  -0.3846154), wk =   0.0036413
        k(   17) = (   0.0000000   0.0769231  -0.3076923), wk =   0.0036413
        k(   18) = (   0.0000000   0.0769231  -0.2307692), wk =   0.0036413
        k(   19) = (   0.0000000   0.0769231  -0.1538462), wk =   0.0036413
        k(   20) = (   0.0000000   0.0769231  -0.0769231), wk =   0.0036413
        k(   21) = (   0.0000000   0.1538462  -0.0000000), wk =   0.0036413
        k(   22) = (   0.0000000   0.1538462   0.0769231), wk =   0.0036413
        k(   23) = (   0.0000000   0.1538462   0.1538462), wk =   0.0018207
        k(   24) = (   0.0000000   0.1538462   0.2307692), wk =   0.0036413
        k(   25) = (   0.0000000   0.1538462   0.3076923), wk =   0.0036413
        k(   26) = (   0.0000000   0.1538462   0.3846154), wk =   0.0036413
        k(   27) = (   0.0000000   0.1538462   0.4615385), wk =   0.0036413
        k(   28) = (   0.0000000   0.1538462  -0.4615385), wk =   0.0036413
        k(   29) = (   0.0000000   0.1538462  -0.3846154), wk =   0.0036413
        k(   30) = (   0.0000000   0.1538462  -0.3076923), wk =   0.0036413
        k(   31) = (   0.0000000   0.1538462  -0.2307692), wk =   0.0036413
        k(   32) = (   0.0000000   0.1538462  -0.1538462), wk =   0.0036413
        k(   33) = (   0.0000000   0.1538462  -0.0769231), wk =   0.0036413
        k(   34) = (   0.0000000   0.2307692  -0.0000000), wk =   0.0036413
        k(   35) = (   0.0000000   0.2307692   0.0769231), wk =   0.0036413
        k(   36) = (   0.0000000   0.2307692   0.1538462), wk =   0.0036413
        k(   37) = (   0.0000000   0.2307692   0.2307692), wk =   0.0018207
        k(   38) = (   0.0000000   0.2307692   0.3076923), wk =   0.0036413
        k(   39) = (   0.0000000   0.2307692   0.3846154), wk =   0.0036413
        k(   40) = (   0.0000000   0.2307692   0.4615385), wk =   0.0036413
        k(   41) = (   0.0000000   0.2307692  -0.4615385), wk =   0.0036413
        k(   42) = (   0.0000000   0.2307692  -0.3846154), wk =   0.0036413
        k(   43) = (   0.0000000   0.2307692  -0.3076923), wk =   0.0036413
        k(   44) = (   0.0000000   0.2307692  -0.2307692), wk =   0.0036413
        k(   45) = (   0.0000000   0.2307692  -0.1538462), wk =   0.0036413
        k(   46) = (   0.0000000   0.2307692  -0.0769231), wk =   0.0036413
        k(   47) = (   0.0000000   0.3076923  -0.0000000), wk =   0.0036413
        k(   48) = (   0.0000000   0.3076923   0.0769231), wk =   0.0036413
        k(   49) = (   0.0000000   0.3076923   0.1538462), wk =   0.0036413
        k(   50) = (   0.0000000   0.3076923   0.2307692), wk =   0.0036413
        k(   51) = (   0.0000000   0.3076923   0.3076923), wk =   0.0018207
        k(   52) = (   0.0000000   0.3076923   0.3846154), wk =   0.0036413
        k(   53) = (   0.0000000   0.3076923   0.4615385), wk =   0.0036413
        k(   54) = (   0.0000000   0.3076923  -0.4615385), wk =   0.0036413
        k(   55) = (   0.0000000   0.3076923  -0.3846154), wk =   0.0036413
        k(   56) = (   0.0000000   0.3076923  -0.3076923), wk =   0.0036413
        k(   57) = (   0.0000000   0.3076923  -0.2307692), wk =   0.0036413
        k(   58) = (   0.0000000   0.3076923  -0.1538462), wk =   0.0036413
        k(   59) = (   0.0000000   0.3076923  -0.0769231), wk =   0.0036413
        k(   60) = (   0.0000000   0.3846154   0.0000000), wk =   0.0036413
        k(   61) = (   0.0000000   0.3846154   0.0769231), wk =   0.0036413
        k(   62) = (   0.0000000   0.3846154   0.1538462), wk =   0.0036413
        k(   63) = (   0.0000000   0.3846154   0.2307692), wk =   0.0036413
        k(   64) = (   0.0000000   0.3846154   0.3076923), wk =   0.0036413
        k(   65) = (   0.0000000   0.3846154   0.3846154), wk =   0.0018207
        k(   66) = (   0.0000000   0.3846154   0.4615385), wk =   0.0036413
        k(   67) = (   0.0000000   0.3846154  -0.4615385), wk =   0.0036413
        k(   68) = (   0.0000000   0.3846154  -0.3846154), wk =   0.0036413
        k(   69) = (   0.0000000   0.3846154  -0.3076923), wk =   0.0036413
        k(   70) = (   0.0000000   0.3846154  -0.2307692), wk =   0.0036413
        k(   71) = (   0.0000000   0.3846154  -0.1538462), wk =   0.0036413
        k(   72) = (   0.0000000   0.3846154  -0.0769231), wk =   0.0036413
        k(   73) = (   0.0000000   0.4615385  -0.0000000), wk =   0.0036413
        k(   74) = (   0.0000000   0.4615385   0.0769231), wk =   0.0036413
        k(   75) = (   0.0000000   0.4615385   0.1538462), wk =   0.0036413
        k(   76) = (   0.0000000   0.4615385   0.2307692), wk =   0.0036413
        k(   77) = (   0.0000000   0.4615385   0.3076923), wk =   0.0036413
        k(   78) = (   0.0000000   0.4615385   0.3846154), wk =   0.0036413
        k(   79) = (   0.0000000   0.4615385   0.4615385), wk =   0.0018207
        k(   80) = (   0.0000000   0.4615385  -0.4615385), wk =   0.0036413
        k(   81) = (   0.0000000   0.4615385  -0.3846154), wk =   0.0036413
        k(   82) = (   0.0000000   0.4615385  -0.3076923), wk =   0.0036413
        k(   83) = (   0.0000000   0.4615385  -0.2307692), wk =   0.0036413
        k(   84) = (   0.0000000   0.4615385  -0.1538462), wk =   0.0036413
        k(   85) = (   0.0000000   0.4615385  -0.0769231), wk =   0.0036413
        k(   86) = (   0.0769231  -0.0000000   0.0769231), wk =   0.0018207
        k(   87) = (   0.0769231  -0.0000000   0.1538462), wk =   0.0036413
        k(   88) = (   0.0769231  -0.0000000   0.2307692), wk =   0.0036413
        k(   89) = (   0.0769231   0.0000000   0.3076923), wk =   0.0036413
        k(   90) = (   0.0769231  -0.0000000   0.3846154), wk =   0.0036413
        k(   91) = (   0.0769231  -0.0000000   0.4615385), wk =   0.0036413
        k(   92) = (   0.0769231   0.0000000  -0.4615385), wk =   0.0036413
        k(   93) = (   0.0769231  -0.0000000  -0.3846154), wk =   0.0036413
        k(   94) = (   0.0769231   0.0000000  -0.3076923), wk =   0.0036413
        k(   95) = (   0.0769231   0.0000000  -0.2307692), wk =   0.0036413
        k(   96) = (   0.0769231   0.0000000  -0.1538462), wk =   0.0036413
        k(   97) = (   0.0769231   0.0000000  -0.0769231), wk =   0.0036413
        k(   98) = (   0.0769231   0.0769231   0.0000000), wk =   0.0018207
        k(   99) = (   0.0769231   0.0769231   0.1538462), wk =   0.0018207
        k(  100) = (   0.0769231   0.0769231   0.2307692), wk =   0.0036413
        k(  101) = (   0.0769231   0.0769231   0.3076923), wk =   0.0036413
        k(  102) = (   0.0769231   0.0769231   0.3846154), wk =   0.0036413
        k(  103) = (   0.0769231   0.0769231   0.4615385), wk =   0.0036413
        k(  104) = (   0.0769231   0.0769231  -0.4615385), wk =   0.0036413
        k(  105) = (   0.0769231   0.0769231  -0.3846154), wk =   0.0036413
        k(  106) = (   0.0769231   0.0769231  -0.3076923), wk =   0.0036413
        k(  107) = (   0.0769231   0.0769231  -0.2307692), wk =   0.0036413
        k(  108) = (   0.0769231   0.0769231  -0.1538462), wk =   0.0036413
        k(  109) = (   0.0769231   0.0769231  -0.0769231), wk =   0.0036413
        k(  110) = (   0.0769231   0.1538462  -0.0000000), wk =   0.0036413
        k(  111) = (   0.0769231   0.1538462   0.2307692), wk =   0.0018207
        k(  112) = (   0.0769231   0.1538462   0.3076923), wk =   0.0036413
        k(  113) = (   0.0769231   0.1538462   0.3846154), wk =   0.0036413
        k(  114) = (   0.0769231   0.1538462   0.4615385), wk =   0.0036413
        k(  115) = (   0.0769231   0.1538462  -0.4615385), wk =   0.0036413
        k(  116) = (   0.0769231   0.1538462  -0.3846154), wk =   0.0036413
        k(  117) = (   0.0769231   0.1538462  -0.3076923), wk =   0.0036413
        k(  118) = (   0.0769231   0.1538462  -0.2307692), wk =   0.0036413
        k(  119) = (   0.0769231   0.1538462  -0.1538462), wk =   0.0036413
        k(  120) = (   0.0769231   0.1538462  -0.0769231), wk =   0.0036413
        k(  121) = (   0.0769231   0.2307692  -0.0000000), wk =   0.0036413
        k(  122) = (   0.0769231   0.2307692   0.0769231), wk =   0.0036413
        k(  123) = (   0.0769231   0.2307692   0.1538462), wk =   0.0036413
        k(  124) = (   0.0769231   0.2307692   0.3076923), wk =   0.0018207
        k(  125) = (   0.0769231   0.2307692   0.3846154), wk =   0.0036413
        k(  126) = (   0.0769231   0.2307692   0.4615385), wk =   0.0036413
        k(  127) = (   0.0769231   0.2307692  -0.4615385), wk =   0.0036413
        k(  128) = (   0.0769231   0.2307692  -0.3846154), wk =   0.0036413
        k(  129) = (   0.0769231   0.2307692  -0.3076923), wk =   0.0036413
        k(  130) = (   0.0769231   0.2307692  -0.2307692), wk =   0.0036413
        k(  131) = (   0.0769231   0.2307692  -0.1538462), wk =   0.0036413
        k(  132) = (   0.0769231   0.2307692  -0.0769231), wk =   0.0036413
        k(  133) = (   0.0769231   0.3076923  -0.0000000), wk =   0.0036413
        k(  134) = (   0.0769231   0.3076923   0.0769231), wk =   0.0036413
        k(  135) = (   0.0769231   0.3076923   0.1538462), wk =   0.0036413
        k(  136) = (   0.0769231   0.3076923   0.2307692), wk =   0.0036413
        k(  137) = (   0.0769231   0.3076923   0.3846154), wk =   0.0018207
        k(  138) = (   0.0769231   0.3076923   0.4615385), wk =   0.0036413
        k(  139) = (   0.0769231   0.3076923  -0.4615385), wk =   0.0036413
        k(  140) = (   0.0769231   0.3076923  -0.3846154), wk =   0.0036413
        k(  141) = (   0.0769231   0.3076923  -0.3076923), wk =   0.0036413
        k(  142) = (   0.0769231   0.3076923  -0.2307692), wk =   0.0036413
        k(  143) = (   0.0769231   0.3076923  -0.1538462), wk =   0.0036413
        k(  144) = (   0.0769231   0.3076923  -0.0769231), wk =   0.0036413
        k(  145) = (   0.0769231   0.3846154   0.0000000), wk =   0.0036413
        k(  146) = (   0.0769231   0.3846154   0.0769231), wk =   0.0036413
        k(  147) = (   0.0769231   0.3846154   0.1538462), wk =   0.0036413
        k(  148) = (   0.0769231   0.3846154   0.2307692), wk =   0.0036413
        k(  149) = (   0.0769231   0.3846154   0.3076923), wk =   0.0036413
        k(  150) = (   0.0769231   0.3846154   0.4615385), wk =   0.0018207
        k(  151) = (   0.0769231   0.3846154  -0.4615385), wk =   0.0036413
        k(  152) = (   0.0769231   0.3846154  -0.3846154), wk =   0.0036413
        k(  153) = (   0.0769231   0.3846154  -0.3076923), wk =   0.0036413
        k(  154) = (   0.0769231   0.3846154  -0.2307692), wk =   0.0036413
        k(  155) = (   0.0769231   0.3846154  -0.1538462), wk =   0.0036413
        k(  156) = (   0.0769231   0.3846154  -0.0769231), wk =   0.0036413
        k(  157) = (   0.0769231   0.4615385   0.0000000), wk =   0.0036413
        k(  158) = (   0.0769231   0.4615385   0.0769231), wk =   0.0036413
        k(  159) = (   0.0769231   0.4615385   0.1538462), wk =   0.0036413
        k(  160) = (   0.0769231   0.4615385   0.2307692), wk =   0.0036413
        k(  161) = (   0.0769231   0.4615385   0.3076923), wk =   0.0036413
        k(  162) = (   0.0769231   0.4615385   0.3846154), wk =   0.0036413
        k(  163) = (   0.0769231   0.4615385  -0.4615385), wk =   0.0018207
        k(  164) = (   0.0769231   0.4615385  -0.3846154), wk =   0.0036413
        k(  165) = (   0.0769231   0.4615385  -0.3076923), wk =   0.0036413
        k(  166) = (   0.0769231   0.4615385  -0.2307692), wk =   0.0036413
        k(  167) = (   0.0769231   0.4615385  -0.1538462), wk =   0.0036413
        k(  168) = (   0.0769231   0.4615385  -0.0769231), wk =   0.0036413
        k(  169) = (   0.0769231  -0.4615385   0.0000000), wk =   0.0036413
        k(  170) = (   0.0769231  -0.4615385   0.0769231), wk =   0.0036413
        k(  171) = (   0.0769231  -0.4615385   0.1538462), wk =   0.0036413
        k(  172) = (   0.0769231  -0.4615385   0.2307692), wk =   0.0036413
        k(  173) = (   0.0769231  -0.4615385   0.3076923), wk =   0.0036413
        k(  174) = (   0.0769231  -0.4615385   0.3846154), wk =   0.0036413
        k(  175) = (   0.0769231  -0.4615385   0.4615385), wk =   0.0036413
        k(  176) = (   0.0769231  -0.4615385  -0.3846154), wk =   0.0018207
        k(  177) = (   0.0769231  -0.4615385  -0.3076923), wk =   0.0036413
        k(  178) = (   0.0769231  -0.4615385  -0.2307692), wk =   0.0036413
        k(  179) = (   0.0769231  -0.4615385  -0.1538462), wk =   0.0036413
        k(  180) = (   0.0769231  -0.4615385  -0.0769231), wk =   0.0036413
        k(  181) = (   0.0769231  -0.3846154   0.0000000), wk =   0.0036413
        k(  182) = (   0.0769231  -0.3846154   0.0769231), wk =   0.0036413
        k(  183) = (   0.0769231  -0.3846154   0.1538462), wk =   0.0036413
        k(  184) = (   0.0769231  -0.3846154   0.2307692), wk =   0.0036413
        k(  185) = (   0.0769231  -0.3846154   0.3076923), wk =   0.0036413
        k(  186) = (   0.0769231  -0.3846154   0.3846154), wk =   0.0036413
        k(  187) = (   0.0769231  -0.3846154   0.4615385), wk =   0.0036413
        k(  188) = (   0.0769231  -0.3846154  -0.3076923), wk =   0.0018207
        k(  189) = (   0.0769231  -0.3846154  -0.2307692), wk =   0.0036413
        k(  190) = (   0.0769231  -0.3846154  -0.1538462), wk =   0.0036413
        k(  191) = (   0.0769231  -0.3846154  -0.0769231), wk =   0.0036413
        k(  192) = (   0.0769231  -0.3076923   0.0000000), wk =   0.0036413
        k(  193) = (   0.0769231  -0.3076923   0.0769231), wk =   0.0036413
        k(  194) = (   0.0769231  -0.3076923   0.1538462), wk =   0.0036413
        k(  195) = (   0.0769231  -0.3076923   0.2307692), wk =   0.0036413
        k(  196) = (   0.0769231  -0.3076923   0.3076923), wk =   0.0036413
        k(  197) = (   0.0769231  -0.3076923   0.3846154), wk =   0.0036413
        k(  198) = (   0.0769231  -0.3076923   0.4615385), wk =   0.0036413
        k(  199) = (   0.0769231  -0.3076923  -0.4615385), wk =   0.0036413
        k(  200) = (   0.0769231  -0.3076923  -0.2307692), wk =   0.0018207
        k(  201) = (   0.0769231  -0.3076923  -0.1538462), wk =   0.0036413
        k(  202) = (   0.0769231  -0.3076923  -0.0769231), wk =   0.0036413
        k(  203) = (   0.0769231  -0.2307692   0.0000000), wk =   0.0036413
        k(  204) = (   0.0769231  -0.2307692   0.0769231), wk =   0.0036413
        k(  205) = (   0.0769231  -0.2307692   0.1538462), wk =   0.0036413
        k(  206) = (   0.0769231  -0.2307692   0.2307692), wk =   0.0036413
        k(  207) = (   0.0769231  -0.2307692   0.3076923), wk =   0.0036413
        k(  208) = (   0.0769231  -0.2307692   0.3846154), wk =   0.0036413
        k(  209) = (   0.0769231  -0.2307692   0.4615385), wk =   0.0036413
        k(  210) = (   0.0769231  -0.2307692  -0.4615385), wk =   0.0036413
        k(  211) = (   0.0769231  -0.2307692  -0.3846154), wk =   0.0036413
        k(  212) = (   0.0769231  -0.2307692  -0.1538462), wk =   0.0018207
        k(  213) = (   0.0769231  -0.2307692  -0.0769231), wk =   0.0036413
        k(  214) = (   0.0769231  -0.1538462   0.0000000), wk =   0.0036413
        k(  215) = (   0.0769231  -0.1538462   0.0769231), wk =   0.0036413
        k(  216) = (   0.0769231  -0.1538462   0.1538462), wk =   0.0036413
        k(  217) = (   0.0769231  -0.1538462   0.2307692), wk =   0.0036413
        k(  218) = (   0.0769231  -0.1538462   0.3076923), wk =   0.0036413
        k(  219) = (   0.0769231  -0.1538462   0.3846154), wk =   0.0036413
        k(  220) = (   0.0769231  -0.1538462   0.4615385), wk =   0.0036413
        k(  221) = (   0.0769231  -0.1538462  -0.4615385), wk =   0.0036413
        k(  222) = (   0.0769231  -0.1538462  -0.3846154), wk =   0.0036413
        k(  223) = (   0.0769231  -0.1538462  -0.3076923), wk =   0.0036413
        k(  224) = (   0.0769231  -0.1538462  -0.0769231), wk =   0.0018207
        k(  225) = (   0.0769231  -0.0769231   0.0000000), wk =   0.0018207
        k(  226) = (   0.0769231  -0.0769231   0.0769231), wk =   0.0036413
        k(  227) = (   0.0769231  -0.0769231   0.1538462), wk =   0.0036413
        k(  228) = (   0.0769231  -0.0769231   0.2307692), wk =   0.0036413
        k(  229) = (   0.0769231  -0.0769231   0.3076923), wk =   0.0036413
        k(  230) = (   0.0769231  -0.0769231   0.3846154), wk =   0.0036413
        k(  231) = (   0.0769231  -0.0769231   0.4615385), wk =   0.0036413
        k(  232) = (   0.0769231  -0.0769231  -0.4615385), wk =   0.0036413
        k(  233) = (   0.0769231  -0.0769231  -0.3846154), wk =   0.0036413
        k(  234) = (   0.0769231  -0.0769231  -0.3076923), wk =   0.0036413
        k(  235) = (   0.0769231  -0.0769231  -0.2307692), wk =   0.0036413
        k(  236) = (   0.1538462  -0.0000000   0.1538462), wk =   0.0018207
        k(  237) = (   0.1538462  -0.0000000   0.2307692), wk =   0.0036413
        k(  238) = (   0.1538462  -0.0000000   0.3076923), wk =   0.0036413
        k(  239) = (   0.1538462   0.0000000   0.3846154), wk =   0.0036413
        k(  240) = (   0.1538462  -0.0000000   0.4615385), wk =   0.0036413
        k(  241) = (   0.1538462   0.0000000  -0.4615385), wk =   0.0036413
        k(  242) = (   0.1538462   0.0000000  -0.3846154), wk =   0.0036413
        k(  243) = (   0.1538462   0.0000000  -0.3076923), wk =   0.0036413
        k(  244) = (   0.1538462  -0.0000000  -0.2307692), wk =   0.0036413
        k(  245) = (   0.1538462   0.0000000  -0.1538462), wk =   0.0036413
        k(  246) = (   0.1538462   0.0769231   0.2307692), wk =   0.0018207
        k(  247) = (   0.1538462   0.0769231   0.3076923), wk =   0.0036413
        k(  248) = (   0.1538462   0.0769231   0.3846154), wk =   0.0036413
        k(  249) = (   0.1538462   0.0769231   0.4615385), wk =   0.0036413
        k(  250) = (   0.1538462   0.0769231  -0.4615385), wk =   0.0036413
        k(  251) = (   0.1538462   0.0769231  -0.3846154), wk =   0.0036413
        k(  252) = (   0.1538462   0.0769231  -0.3076923), wk =   0.0036413
        k(  253) = (   0.1538462   0.0769231  -0.2307692), wk =   0.0036413
        k(  254) = (   0.1538462   0.0769231  -0.1538462), wk =   0.0036413
        k(  255) = (   0.1538462   0.0769231  -0.0769231), wk =   0.0036413
        k(  256) = (   0.1538462   0.1538462   0.0000000), wk =   0.0018207
        k(  257) = (   0.1538462   0.1538462   0.3076923), wk =   0.0018207
        k(  258) = (   0.1538462   0.1538462   0.3846154), wk =   0.0036413
        k(  259) = (   0.1538462   0.1538462   0.4615385), wk =   0.0036413
        k(  260) = (   0.1538462   0.1538462  -0.4615385), wk =   0.0036413
        k(  261) = (   0.1538462   0.1538462  -0.3846154), wk =   0.0036413
        k(  262) = (   0.1538462   0.1538462  -0.3076923), wk =   0.0036413
        k(  263) = (   0.1538462   0.1538462  -0.2307692), wk =   0.0036413
        k(  264) = (   0.1538462   0.1538462  -0.1538462), wk =   0.0036413
        k(  265) = (   0.1538462   0.1538462  -0.0769231), wk =   0.0036413
        k(  266) = (   0.1538462   0.2307692  -0.0000000), wk =   0.0036413
        k(  267) = (   0.1538462   0.2307692   0.3846154), wk =   0.0018207
        k(  268) = (   0.1538462   0.2307692   0.4615385), wk =   0.0036413
        k(  269) = (   0.1538462   0.2307692  -0.4615385), wk =   0.0036413
        k(  270) = (   0.1538462   0.2307692  -0.3846154), wk =   0.0036413
        k(  271) = (   0.1538462   0.2307692  -0.3076923), wk =   0.0036413
        k(  272) = (   0.1538462   0.2307692  -0.2307692), wk =   0.0036413
        k(  273) = (   0.1538462   0.2307692  -0.1538462), wk =   0.0036413
        k(  274) = (   0.1538462   0.2307692  -0.0769231), wk =   0.0036413
        k(  275) = (   0.1538462   0.3076923  -0.0000000), wk =   0.0036413
        k(  276) = (   0.1538462   0.3076923   0.0769231), wk =   0.0036413
        k(  277) = (   0.1538462   0.3076923   0.4615385), wk =   0.0018207
        k(  278) = (   0.1538462   0.3076923  -0.4615385), wk =   0.0036413
        k(  279) = (   0.1538462   0.3076923  -0.3846154), wk =   0.0036413
        k(  280) = (   0.1538462   0.3076923  -0.3076923), wk =   0.0036413
        k(  281) = (   0.1538462   0.3076923  -0.2307692), wk =   0.0036413
        k(  282) = (   0.1538462   0.3076923  -0.1538462), wk =   0.0036413
        k(  283) = (   0.1538462   0.3076923  -0.0769231), wk =   0.0036413
        k(  284) = (   0.1538462   0.3846154   0.0000000), wk =   0.0036413
        k(  285) = (   0.1538462   0.3846154   0.0769231), wk =   0.0036413
        k(  286) = (   0.1538462   0.3846154   0.1538462), wk =   0.0036413
        k(  287) = (   0.1538462   0.3846154   0.2307692), wk =   0.0036413
        k(  288) = (   0.1538462   0.3846154  -0.4615385), wk =   0.0018207
        k(  289) = (   0.1538462   0.3846154  -0.3846154), wk =   0.0036413
        k(  290) = (   0.1538462   0.3846154  -0.3076923), wk =   0.0036413
        k(  291) = (   0.1538462   0.3846154  -0.2307692), wk =   0.0036413
        k(  292) = (   0.1538462   0.3846154  -0.1538462), wk =   0.0036413
        k(  293) = (   0.1538462   0.3846154  -0.0769231), wk =   0.0036413
        k(  294) = (   0.1538462   0.4615385  -0.0000000), wk =   0.0036413
        k(  295) = (   0.1538462   0.4615385   0.0769231), wk =   0.0036413
        k(  296) = (   0.1538462   0.4615385   0.1538462), wk =   0.0036413
        k(  297) = (   0.1538462   0.4615385   0.2307692), wk =   0.0036413
        k(  298) = (   0.1538462   0.4615385   0.3076923), wk =   0.0036413
        k(  299) = (   0.1538462   0.4615385  -0.3846154), wk =   0.0018207
        k(  300) = (   0.1538462   0.4615385  -0.3076923), wk =   0.0036413
        k(  301) = (   0.1538462   0.4615385  -0.2307692), wk =   0.0036413
        k(  302) = (   0.1538462   0.4615385  -0.1538462), wk =   0.0036413
        k(  303) = (   0.1538462   0.4615385  -0.0769231), wk =   0.0036413
        k(  304) = (   0.1538462  -0.4615385   0.0000000), wk =   0.0036413
        k(  305) = (   0.1538462  -0.4615385   0.0769231), wk =   0.0036413
        k(  306) = (   0.1538462  -0.4615385   0.1538462), wk =   0.0036413
        k(  307) = (   0.1538462  -0.4615385   0.2307692), wk =   0.0036413
        k(  308) = (   0.1538462  -0.4615385   0.3076923), wk =   0.0036413
        k(  309) = (   0.1538462  -0.4615385   0.3846154), wk =   0.0036413
        k(  310) = (   0.1538462  -0.4615385  -0.3076923), wk =   0.0018207
        k(  311) = (   0.1538462  -0.4615385  -0.2307692), wk =   0.0036413
        k(  312) = (   0.1538462  -0.4615385  -0.1538462), wk =   0.0036413
        k(  313) = (   0.1538462  -0.4615385  -0.0769231), wk =   0.0036413
        k(  314) = (   0.1538462  -0.3846154   0.0000000), wk =   0.0036413
        k(  315) = (   0.1538462  -0.3846154   0.0769231), wk =   0.0036413
        k(  316) = (   0.1538462  -0.3846154   0.1538462), wk =   0.0036413
        k(  317) = (   0.1538462  -0.3846154   0.2307692), wk =   0.0036413
        k(  318) = (   0.1538462  -0.3846154   0.3076923), wk =   0.0036413
        k(  319) = (   0.1538462  -0.3846154   0.3846154), wk =   0.0036413
        k(  320) = (   0.1538462  -0.3846154   0.4615385), wk =   0.0036413
        k(  321) = (   0.1538462  -0.3846154  -0.2307692), wk =   0.0018207
        k(  322) = (   0.1538462  -0.3846154  -0.1538462), wk =   0.0036413
        k(  323) = (   0.1538462  -0.3846154  -0.0769231), wk =   0.0036413
        k(  324) = (   0.1538462  -0.3076923   0.0000000), wk =   0.0036413
        k(  325) = (   0.1538462  -0.3076923   0.0769231), wk =   0.0036413
        k(  326) = (   0.1538462  -0.3076923   0.1538462), wk =   0.0036413
        k(  327) = (   0.1538462  -0.3076923   0.2307692), wk =   0.0036413
        k(  328) = (   0.1538462  -0.3076923   0.3076923), wk =   0.0036413
        k(  329) = (   0.1538462  -0.3076923   0.3846154), wk =   0.0036413
        k(  330) = (   0.1538462  -0.3076923   0.4615385), wk =   0.0036413
        k(  331) = (   0.1538462  -0.3076923  -0.1538462), wk =   0.0018207
        k(  332) = (   0.1538462  -0.3076923  -0.0769231), wk =   0.0036413
        k(  333) = (   0.1538462  -0.2307692   0.0000000), wk =   0.0036413
        k(  334) = (   0.1538462  -0.2307692   0.0769231), wk =   0.0036413
        k(  335) = (   0.1538462  -0.2307692   0.1538462), wk =   0.0036413
        k(  336) = (   0.1538462  -0.2307692   0.2307692), wk =   0.0036413
        k(  337) = (   0.1538462  -0.2307692   0.3076923), wk =   0.0036413
        k(  338) = (   0.1538462  -0.2307692   0.3846154), wk =   0.0036413
        k(  339) = (   0.1538462  -0.2307692   0.4615385), wk =   0.0036413
        k(  340) = (   0.1538462  -0.2307692  -0.4615385), wk =   0.0036413
        k(  341) = (   0.1538462  -0.2307692  -0.0769231), wk =   0.0018207
        k(  342) = (   0.1538462  -0.1538462   0.0000000), wk =   0.0018207
        k(  343) = (   0.1538462  -0.1538462   0.0769231), wk =   0.0036413
        k(  344) = (   0.1538462  -0.1538462   0.1538462), wk =   0.0036413
        k(  345) = (   0.1538462  -0.1538462   0.2307692), wk =   0.0036413
        k(  346) = (   0.1538462  -0.1538462   0.3076923), wk =   0.0036413
        k(  347) = (   0.1538462  -0.1538462   0.3846154), wk =   0.0036413
        k(  348) = (   0.1538462  -0.1538462   0.4615385), wk =   0.0036413
        k(  349) = (   0.1538462  -0.1538462  -0.4615385), wk =   0.0036413
        k(  350) = (   0.1538462  -0.1538462  -0.3846154), wk =   0.0036413
        k(  351) = (   0.1538462  -0.0769231   0.0769231), wk =   0.0018207
        k(  352) = (   0.1538462  -0.0769231   0.1538462), wk =   0.0036413
        k(  353) = (   0.1538462  -0.0769231   0.2307692), wk =   0.0036413
        k(  354) = (   0.1538462  -0.0769231   0.3076923), wk =   0.0036413
        k(  355) = (   0.1538462  -0.0769231   0.3846154), wk =   0.0036413
        k(  356) = (   0.1538462  -0.0769231   0.4615385), wk =   0.0036413
        k(  357) = (   0.1538462  -0.0769231  -0.4615385), wk =   0.0036413
        k(  358) = (   0.1538462  -0.0769231  -0.3846154), wk =   0.0036413
        k(  359) = (   0.1538462  -0.0769231  -0.3076923), wk =   0.0036413
        k(  360) = (   0.2307692  -0.0000000   0.2307692), wk =   0.0018207
        k(  361) = (   0.2307692  -0.0000000   0.3076923), wk =   0.0036413
        k(  362) = (   0.2307692  -0.0000000   0.3846154), wk =   0.0036413
        k(  363) = (   0.2307692  -0.0000000   0.4615385), wk =   0.0036413
        k(  364) = (   0.2307692   0.0000000  -0.4615385), wk =   0.0036413
        k(  365) = (   0.2307692   0.0000000  -0.3846154), wk =   0.0036413
        k(  366) = (   0.2307692   0.0000000  -0.3076923), wk =   0.0036413
        k(  367) = (   0.2307692   0.0000000  -0.2307692), wk =   0.0036413
        k(  368) = (   0.2307692   0.0769231   0.3076923), wk =   0.0018207
        k(  369) = (   0.2307692   0.0769231   0.3846154), wk =   0.0036413
        k(  370) = (   0.2307692   0.0769231   0.4615385), wk =   0.0036413
        k(  371) = (   0.2307692   0.0769231  -0.4615385), wk =   0.0036413
        k(  372) = (   0.2307692   0.0769231  -0.3846154), wk =   0.0036413
        k(  373) = (   0.2307692   0.0769231  -0.3076923), wk =   0.0036413
        k(  374) = (   0.2307692   0.0769231  -0.2307692), wk =   0.0036413
        k(  375) = (   0.2307692   0.0769231  -0.1538462), wk =   0.0036413
        k(  376) = (   0.2307692   0.1538462   0.3846154), wk =   0.0018207
        k(  377) = (   0.2307692   0.1538462   0.4615385), wk =   0.0036413
        k(  378) = (   0.2307692   0.1538462  -0.4615385), wk =   0.0036413
        k(  379) = (   0.2307692   0.1538462  -0.3846154), wk =   0.0036413
        k(  380) = (   0.2307692   0.1538462  -0.3076923), wk =   0.0036413
        k(  381) = (   0.2307692   0.1538462  -0.2307692), wk =   0.0036413
        k(  382) = (   0.2307692   0.1538462  -0.1538462), wk =   0.0036413
        k(  383) = (   0.2307692   0.1538462  -0.0769231), wk =   0.0036413
        k(  384) = (   0.2307692   0.2307692   0.0000000), wk =   0.0018207
        k(  385) = (   0.2307692   0.2307692   0.4615385), wk =   0.0018207
        k(  386) = (   0.2307692   0.2307692  -0.4615385), wk =   0.0036413
        k(  387) = (   0.2307692   0.2307692  -0.3846154), wk =   0.0036413
        k(  388) = (   0.2307692   0.2307692  -0.3076923), wk =   0.0036413
        k(  389) = (   0.2307692   0.2307692  -0.2307692), wk =   0.0036413
        k(  390) = (   0.2307692   0.2307692  -0.1538462), wk =   0.0036413
        k(  391) = (   0.2307692   0.2307692  -0.0769231), wk =   0.0036413
        k(  392) = (   0.2307692   0.3076923  -0.0000000), wk =   0.0036413
        k(  393) = (   0.2307692   0.3076923  -0.4615385), wk =   0.0018207
        k(  394) = (   0.2307692   0.3076923  -0.3846154), wk =   0.0036413
        k(  395) = (   0.2307692   0.3076923  -0.3076923), wk =   0.0036413
        k(  396) = (   0.2307692   0.3076923  -0.2307692), wk =   0.0036413
        k(  397) = (   0.2307692   0.3076923  -0.1538462), wk =   0.0036413
        k(  398) = (   0.2307692   0.3076923  -0.0769231), wk =   0.0036413
        k(  399) = (   0.2307692   0.3846154   0.0000000), wk =   0.0036413
        k(  400) = (   0.2307692   0.3846154   0.0769231), wk =   0.0036413
        k(  401) = (   0.2307692   0.3846154  -0.3846154), wk =   0.0018207
        k(  402) = (   0.2307692   0.3846154  -0.3076923), wk =   0.0036413
        k(  403) = (   0.2307692   0.3846154  -0.2307692), wk =   0.0036413
        k(  404) = (   0.2307692   0.3846154  -0.1538462), wk =   0.0036413
        k(  405) = (   0.2307692   0.3846154  -0.0769231), wk =   0.0036413
        k(  406) = (   0.2307692   0.4615385  -0.0000000), wk =   0.0036413
        k(  407) = (   0.2307692   0.4615385   0.0769231), wk =   0.0036413
        k(  408) = (   0.2307692   0.4615385   0.1538462), wk =   0.0036413
        k(  409) = (   0.2307692   0.4615385  -0.3076923), wk =   0.0018207
        k(  410) = (   0.2307692   0.4615385  -0.2307692), wk =   0.0036413
        k(  411) = (   0.2307692   0.4615385  -0.1538462), wk =   0.0036413
        k(  412) = (   0.2307692   0.4615385  -0.0769231), wk =   0.0036413
        k(  413) = (   0.2307692  -0.4615385   0.0000000), wk =   0.0036413
        k(  414) = (   0.2307692  -0.4615385   0.0769231), wk =   0.0036413
        k(  415) = (   0.2307692  -0.4615385   0.1538462), wk =   0.0036413
        k(  416) = (   0.2307692  -0.4615385   0.2307692), wk =   0.0036413
        k(  417) = (   0.2307692  -0.4615385   0.3076923), wk =   0.0036413
        k(  418) = (   0.2307692  -0.4615385  -0.2307692), wk =   0.0018207
        k(  419) = (   0.2307692  -0.4615385  -0.1538462), wk =   0.0036413
        k(  420) = (   0.2307692  -0.4615385  -0.0769231), wk =   0.0036413
        k(  421) = (   0.2307692  -0.3846154   0.0000000), wk =   0.0036413
        k(  422) = (   0.2307692  -0.3846154   0.0769231), wk =   0.0036413
        k(  423) = (   0.2307692  -0.3846154   0.1538462), wk =   0.0036413
        k(  424) = (   0.2307692  -0.3846154   0.2307692), wk =   0.0036413
        k(  425) = (   0.2307692  -0.3846154   0.3076923), wk =   0.0036413
        k(  426) = (   0.2307692  -0.3846154   0.3846154), wk =   0.0036413
        k(  427) = (   0.2307692  -0.3846154  -0.1538462), wk =   0.0018207
        k(  428) = (   0.2307692  -0.3846154  -0.0769231), wk =   0.0036413
        k(  429) = (   0.2307692  -0.3076923   0.0000000), wk =   0.0036413
        k(  430) = (   0.2307692  -0.3076923   0.0769231), wk =   0.0036413
        k(  431) = (   0.2307692  -0.3076923   0.1538462), wk =   0.0036413
        k(  432) = (   0.2307692  -0.3076923   0.2307692), wk =   0.0036413
        k(  433) = (   0.2307692  -0.3076923   0.3076923), wk =   0.0036413
        k(  434) = (   0.2307692  -0.3076923   0.3846154), wk =   0.0036413
        k(  435) = (   0.2307692  -0.3076923   0.4615385), wk =   0.0036413
        k(  436) = (   0.2307692  -0.3076923  -0.0769231), wk =   0.0018207
        k(  437) = (   0.2307692  -0.2307692   0.0000000), wk =   0.0018207
        k(  438) = (   0.2307692  -0.2307692   0.0769231), wk =   0.0036413
        k(  439) = (   0.2307692  -0.2307692   0.1538462), wk =   0.0036413
        k(  440) = (   0.2307692  -0.2307692   0.2307692), wk =   0.0036413
        k(  441) = (   0.2307692  -0.2307692   0.3076923), wk =   0.0036413
        k(  442) = (   0.2307692  -0.2307692   0.3846154), wk =   0.0036413
        k(  443) = (   0.2307692  -0.2307692   0.4615385), wk =   0.0036413
        k(  444) = (   0.2307692  -0.1538462   0.0769231), wk =   0.0018207
        k(  445) = (   0.2307692  -0.1538462   0.1538462), wk =   0.0036413
        k(  446) = (   0.2307692  -0.1538462   0.2307692), wk =   0.0036413
        k(  447) = (   0.2307692  -0.1538462   0.3076923), wk =   0.0036413
        k(  448) = (   0.2307692  -0.1538462   0.3846154), wk =   0.0036413
        k(  449) = (   0.2307692  -0.1538462   0.4615385), wk =   0.0036413
        k(  450) = (   0.2307692  -0.1538462  -0.4615385), wk =   0.0036413
        k(  451) = (   0.2307692  -0.0769231   0.1538462), wk =   0.0018207
        k(  452) = (   0.2307692  -0.0769231   0.2307692), wk =   0.0036413
        k(  453) = (   0.2307692  -0.0769231   0.3076923), wk =   0.0036413
        k(  454) = (   0.2307692  -0.0769231   0.3846154), wk =   0.0036413
        k(  455) = (   0.2307692  -0.0769231   0.4615385), wk =   0.0036413
        k(  456) = (   0.2307692  -0.0769231  -0.4615385), wk =   0.0036413
        k(  457) = (   0.2307692  -0.0769231  -0.3846154), wk =   0.0036413
        k(  458) = (   0.3076923  -0.0000000   0.3076923), wk =   0.0018207
        k(  459) = (   0.3076923  -0.0000000   0.3846154), wk =   0.0036413
        k(  460) = (   0.3076923  -0.0000000   0.4615385), wk =   0.0036413
        k(  461) = (   0.3076923   0.0000000  -0.4615385), wk =   0.0036413
        k(  462) = (   0.3076923   0.0000000  -0.3846154), wk =   0.0036413
        k(  463) = (   0.3076923   0.0000000  -0.3076923), wk =   0.0036413
        k(  464) = (   0.3076923   0.0769231   0.3846154), wk =   0.0018207
        k(  465) = (   0.3076923   0.0769231   0.4615385), wk =   0.0036413
        k(  466) = (   0.3076923   0.0769231  -0.4615385), wk =   0.0036413
        k(  467) = (   0.3076923   0.0769231  -0.3846154), wk =   0.0036413
        k(  468) = (   0.3076923   0.0769231  -0.3076923), wk =   0.0036413
        k(  469) = (   0.3076923   0.0769231  -0.2307692), wk =   0.0036413
        k(  470) = (   0.3076923   0.1538462   0.4615385), wk =   0.0018207
        k(  471) = (   0.3076923   0.1538462  -0.4615385), wk =   0.0036413
        k(  472) = (   0.3076923   0.1538462  -0.3846154), wk =   0.0036413
        k(  473) = (   0.3076923   0.1538462  -0.3076923), wk =   0.0036413
        k(  474) = (   0.3076923   0.1538462  -0.2307692), wk =   0.0036413
        k(  475) = (   0.3076923   0.1538462  -0.1538462), wk =   0.0036413
        k(  476) = (   0.3076923   0.2307692  -0.4615385), wk =   0.0018207
        k(  477) = (   0.3076923   0.2307692  -0.3846154), wk =   0.0036413
        k(  478) = (   0.3076923   0.2307692  -0.3076923), wk =   0.0036413
        k(  479) = (   0.3076923   0.2307692  -0.2307692), wk =   0.0036413
        k(  480) = (   0.3076923   0.2307692  -0.1538462), wk =   0.0036413
        k(  481) = (   0.3076923   0.2307692  -0.0769231), wk =   0.0036413
        k(  482) = (   0.3076923   0.3076923   0.0000000), wk =   0.0018207
        k(  483) = (   0.3076923   0.3076923  -0.3846154), wk =   0.0018207
        k(  484) = (   0.3076923   0.3076923  -0.3076923), wk =   0.0036413
        k(  485) = (   0.3076923   0.3076923  -0.2307692), wk =   0.0036413
        k(  486) = (   0.3076923   0.3076923  -0.1538462), wk =   0.0036413
        k(  487) = (   0.3076923   0.3076923  -0.0769231), wk =   0.0036413
        k(  488) = (   0.3076923   0.3846154   0.0000000), wk =   0.0036413
        k(  489) = (   0.3076923   0.3846154  -0.3076923), wk =   0.0018207
        k(  490) = (   0.3076923   0.3846154  -0.2307692), wk =   0.0036413
        k(  491) = (   0.3076923   0.3846154  -0.1538462), wk =   0.0036413
        k(  492) = (   0.3076923   0.3846154  -0.0769231), wk =   0.0036413
        k(  493) = (   0.3076923   0.4615385  -0.0000000), wk =   0.0036413
        k(  494) = (   0.3076923   0.4615385   0.0769231), wk =   0.0036413
        k(  495) = (   0.3076923   0.4615385  -0.2307692), wk =   0.0018207
        k(  496) = (   0.3076923   0.4615385  -0.1538462), wk =   0.0036413
        k(  497) = (   0.3076923   0.4615385  -0.0769231), wk =   0.0036413
        k(  498) = (   0.3076923  -0.4615385   0.0000000), wk =   0.0036413
        k(  499) = (   0.3076923  -0.4615385   0.0769231), wk =   0.0036413
        k(  500) = (   0.3076923  -0.4615385   0.1538462), wk =   0.0036413
        k(  501) = (   0.3076923  -0.4615385  -0.1538462), wk =   0.0018207
        k(  502) = (   0.3076923  -0.4615385  -0.0769231), wk =   0.0036413
        k(  503) = (   0.3076923  -0.3846154   0.0000000), wk =   0.0036413
        k(  504) = (   0.3076923  -0.3846154   0.0769231), wk =   0.0036413
        k(  505) = (   0.3076923  -0.3846154   0.1538462), wk =   0.0036413
        k(  506) = (   0.3076923  -0.3846154   0.2307692), wk =   0.0036413
        k(  507) = (   0.3076923  -0.3846154  -0.0769231), wk =   0.0018207
        k(  508) = (   0.3076923  -0.3076923   0.0000000), wk =   0.0018207
        k(  509) = (   0.3076923  -0.3076923   0.0769231), wk =   0.0036413
        k(  510) = (   0.3076923  -0.3076923   0.1538462), wk =   0.0036413
        k(  511) = (   0.3076923  -0.3076923   0.2307692), wk =   0.0036413
        k(  512) = (   0.3076923  -0.3076923   0.3076923), wk =   0.0036413
        k(  513) = (   0.3076923  -0.3076923   0.3846154), wk =   0.0036413
        k(  514) = (   0.3076923  -0.2307692   0.0769231), wk =   0.0018207
        k(  515) = (   0.3076923  -0.2307692   0.1538462), wk =   0.0036413
        k(  516) = (   0.3076923  -0.2307692   0.2307692), wk =   0.0036413
        k(  517) = (   0.3076923  -0.2307692   0.3076923), wk =   0.0036413
        k(  518) = (   0.3076923  -0.2307692   0.3846154), wk =   0.0036413
        k(  519) = (   0.3076923  -0.2307692   0.4615385), wk =   0.0036413
        k(  520) = (   0.3076923  -0.1538462   0.1538462), wk =   0.0018207
        k(  521) = (   0.3076923  -0.1538462   0.2307692), wk =   0.0036413
        k(  522) = (   0.3076923  -0.1538462   0.3076923), wk =   0.0036413
        k(  523) = (   0.3076923  -0.1538462   0.3846154), wk =   0.0036413
        k(  524) = (   0.3076923  -0.1538462   0.4615385), wk =   0.0036413
        k(  525) = (   0.3076923  -0.0769231   0.2307692), wk =   0.0018207
        k(  526) = (   0.3076923  -0.0769231   0.3076923), wk =   0.0036413
        k(  527) = (   0.3076923  -0.0769231   0.3846154), wk =   0.0036413
        k(  528) = (   0.3076923  -0.0769231   0.4615385), wk =   0.0036413
        k(  529) = (   0.3076923  -0.0769231  -0.4615385), wk =   0.0036413
        k(  530) = (   0.3846154  -0.0000000   0.3846154), wk =   0.0018207
        k(  531) = (   0.3846154  -0.0000000   0.4615385), wk =   0.0036413
        k(  532) = (   0.3846154   0.0000000  -0.4615385), wk =   0.0036413
        k(  533) = (   0.3846154  -0.0000000  -0.3846154), wk =   0.0036413
        k(  534) = (   0.3846154   0.0769231   0.4615385), wk =   0.0018207
        k(  535) = (   0.3846154   0.0769231  -0.4615385), wk =   0.0036413
        k(  536) = (   0.3846154   0.0769231  -0.3846154), wk =   0.0036413
        k(  537) = (   0.3846154   0.0769231  -0.3076923), wk =   0.0036413
        k(  538) = (   0.3846154   0.1538462  -0.4615385), wk =   0.0018207
        k(  539) = (   0.3846154   0.1538462  -0.3846154), wk =   0.0036413
        k(  540) = (   0.3846154   0.1538462  -0.3076923), wk =   0.0036413
        k(  541) = (   0.3846154   0.1538462  -0.2307692), wk =   0.0036413
        k(  542) = (   0.3846154   0.2307692  -0.3846154), wk =   0.0018207
        k(  543) = (   0.3846154   0.2307692  -0.3076923), wk =   0.0036413
        k(  544) = (   0.3846154   0.2307692  -0.2307692), wk =   0.0036413
        k(  545) = (   0.3846154   0.2307692  -0.1538462), wk =   0.0036413
        k(  546) = (   0.3846154   0.3076923  -0.3076923), wk =   0.0018207
        k(  547) = (   0.3846154   0.3076923  -0.2307692), wk =   0.0036413
        k(  548) = (   0.3846154   0.3076923  -0.1538462), wk =   0.0036413
        k(  549) = (   0.3846154   0.3076923  -0.0769231), wk =   0.0036413
        k(  550) = (   0.3846154   0.3846154   0.0000000), wk =   0.0018207
        k(  551) = (   0.3846154   0.3846154  -0.2307692), wk =   0.0018207
        k(  552) = (   0.3846154   0.3846154  -0.1538462), wk =   0.0036413
        k(  553) = (   0.3846154   0.3846154  -0.0769231), wk =   0.0036413
        k(  554) = (   0.3846154   0.4615385  -0.0000000), wk =   0.0036413
        k(  555) = (   0.3846154   0.4615385  -0.1538462), wk =   0.0018207
        k(  556) = (   0.3846154   0.4615385  -0.0769231), wk =   0.0036413
        k(  557) = (   0.3846154  -0.4615385   0.0000000), wk =   0.0036413
        k(  558) = (   0.3846154  -0.4615385   0.0769231), wk =   0.0036413
        k(  559) = (   0.3846154  -0.4615385  -0.0769231), wk =   0.0018207
        k(  560) = (   0.3846154  -0.3846154   0.0000000), wk =   0.0018207
        k(  561) = (   0.3846154  -0.3846154   0.0769231), wk =   0.0036413
        k(  562) = (   0.3846154  -0.3846154   0.1538462), wk =   0.0036413
        k(  563) = (   0.3846154  -0.3076923   0.0769231), wk =   0.0018207
        k(  564) = (   0.3846154  -0.3076923   0.1538462), wk =   0.0036413
        k(  565) = (   0.3846154  -0.3076923   0.2307692), wk =   0.0036413
        k(  566) = (   0.3846154  -0.2307692   0.1538462), wk =   0.0018207
        k(  567) = (   0.3846154  -0.2307692   0.2307692), wk =   0.0036413
        k(  568) = (   0.3846154  -0.2307692   0.3076923), wk =   0.0036413
        k(  569) = (   0.3846154  -0.1538462   0.2307692), wk =   0.0018207
        k(  570) = (   0.3846154  -0.1538462   0.3076923), wk =   0.0036413
        k(  571) = (   0.3846154  -0.1538462   0.3846154), wk =   0.0036413
        k(  572) = (   0.3846154  -0.1538462   0.4615385), wk =   0.0036413
        k(  573) = (   0.3846154  -0.0769231   0.3076923), wk =   0.0018207
        k(  574) = (   0.3846154  -0.0769231   0.3846154), wk =   0.0036413
        k(  575) = (   0.3846154  -0.0769231   0.4615385), wk =   0.0036413
        k(  576) = (   0.4615385  -0.0000000   0.4615385), wk =   0.0018207
        k(  577) = (   0.4615385   0.0000000  -0.4615385), wk =   0.0036413
        k(  578) = (   0.4615385   0.0769231  -0.4615385), wk =   0.0018207
        k(  579) = (   0.4615385   0.0769231  -0.3846154), wk =   0.0036413
        k(  580) = (   0.4615385   0.1538462  -0.3846154), wk =   0.0018207
        k(  581) = (   0.4615385   0.1538462  -0.3076923), wk =   0.0036413
        k(  582) = (   0.4615385   0.2307692  -0.3076923), wk =   0.0018207
        k(  583) = (   0.4615385   0.2307692  -0.2307692), wk =   0.0036413
        k(  584) = (   0.4615385   0.3076923  -0.2307692), wk =   0.0018207
        k(  585) = (   0.4615385   0.3076923  -0.1538462), wk =   0.0036413
        k(  586) = (   0.4615385   0.3846154  -0.1538462), wk =   0.0018207
        k(  587) = (   0.4615385   0.3846154  -0.0769231), wk =   0.0036413
        k(  588) = (   0.4615385   0.4615385   0.0000000), wk =   0.0018207
        k(  589) = (   0.4615385   0.4615385  -0.0769231), wk =   0.0018207
        k(  590) = (   0.4615385  -0.4615385   0.0000000), wk =   0.0018207
        k(  591) = (   0.4615385  -0.3846154   0.0769231), wk =   0.0018207
        k(  592) = (   0.4615385  -0.3076923   0.1538462), wk =   0.0018207
        k(  593) = (   0.4615385  -0.2307692   0.2307692), wk =   0.0018207
        k(  594) = (   0.4615385  -0.1538462   0.3076923), wk =   0.0018207
        k(  595) = (   0.4615385  -0.0769231   0.3846154), wk =   0.0018207

     Dense  grid:    37197 G-vectors     FFT dimensions: (  48,  48,  48)

     Smooth grid:    13183 G-vectors     FFT dimensions: (  36,  36,  36)

     Dynamical RAM for                 wfc:       0.45 MB

     Dynamical RAM for     wfc (w. buffer):     269.44 MB

     Dynamical RAM for           str. fact:       0.57 MB

     Dynamical RAM for           local pot:       0.00 MB

     Dynamical RAM for          nlocal pot:       0.90 MB

     Dynamical RAM for                qrad:       1.52 MB

     Dynamical RAM for          rho,v,vnew:       4.23 MB

     Dynamical RAM for               rhoin:       1.41 MB

     Dynamical RAM for            rho*nmix:       9.08 MB

     Dynamical RAM for           G-vectors:       2.23 MB

     Dynamical RAM for          h,s,v(r/c):       0.06 MB

     Dynamical RAM for          <psi|beta>:       0.01 MB

     Dynamical RAM for                 psi:       0.90 MB

     Dynamical RAM for                hpsi:       0.90 MB

     Dynamical RAM for                spsi:       0.90 MB

     Dynamical RAM for      wfcinit/wfcrot:       0.91 MB

     Dynamical RAM for           addusdens:     106.71 MB

     Dynamical RAM for          addusforce:     108.13 MB

     Dynamical RAM for         addusstress:     114.08 MB

     Estimated static dynamical RAM per process >     285.67 MB

     Estimated max dynamical RAM per process >     408.83 MB

     Initial potential from superposition of free atoms

     starting charge      27.9984, renormalised to      28.0000
     Starting wfcs are   18 randomized atomic wfcs

     total cpu time spent up to now is       41.2 secs

     Self-consistent Calculation

     iteration #  1     ecut=    45.00 Ry     beta= 0.40
     Davidson diagonalization with overlap

---- Real-time Memory Report at c_bands before calling an iterative solver
           322 MiB given to the printing process from OS
             0 MiB allocation reported by mallinfo(arena+hblkhd)
           347 MiB available memory on the node where the printing process lives
------------------
     ethr =  1.00E-02,  avg # of iterations =  3.3

     Threshold (ethr) on eigenvalues was too large:
     Diagonalizing with lowered threshold

     Davidson diagonalization with overlap

---- Real-time Memory Report at c_bands before calling an iterative solver
           415 MiB given to the printing process from OS
             0 MiB allocation reported by mallinfo(arena+hblkhd)
           399 MiB available memory on the node where the printing process lives
------------------
     ethr =  1.03E-04,  avg # of iterations =  2.8

     total cpu time spent up to now is      243.7 secs

     total energy              =    -426.38055761 Ry
     estimated scf accuracy    <       0.03005676 Ry

     iteration #  2     ecut=    45.00 Ry     beta= 0.40
     Davidson diagonalization with overlap

---- Real-time Memory Report at c_bands before calling an iterative solver
           421 MiB given to the printing process from OS
             0 MiB allocation reported by mallinfo(arena+hblkhd)
           383 MiB available memory on the node where the printing process lives
------------------
     ethr =  1.07E-04,  avg # of iterations =  1.0

     total cpu time spent up to now is      329.2 secs

     total energy              =    -426.37864496 Ry
     estimated scf accuracy    <       0.00882188 Ry

     iteration #  3     ecut=    45.00 Ry     beta= 0.40
     Davidson diagonalization with overlap

---- Real-time Memory Report at c_bands before calling an iterative solver
           422 MiB given to the printing process from OS
             0 MiB allocation reported by mallinfo(arena+hblkhd)
           401 MiB available memory on the node where the printing process lives
------------------
     ethr =  3.15E-05,  avg # of iterations =  1.8

     total cpu time spent up to now is      430.3 secs

     total energy              =    -426.37904466 Ry
     estimated scf accuracy    <       0.00009169 Ry

     iteration #  4     ecut=    45.00 Ry     beta= 0.40
     Davidson diagonalization with overlap

---- Real-time Memory Report at c_bands before calling an iterative solver
           422 MiB given to the printing process from OS
             0 MiB allocation reported by mallinfo(arena+hblkhd)
           374 MiB available memory on the node where the printing process lives
------------------
     ethr =  3.27E-07,  avg # of iterations =  3.0

     total cpu time spent up to now is      609.4 secs

     total energy              =    -426.37906447 Ry
     estimated scf accuracy    <       0.00000501 Ry

     iteration #  5     ecut=    45.00 Ry     beta= 0.40
     Davidson diagonalization with overlap

---- Real-time Memory Report at c_bands before calling an iterative solver
           422 MiB given to the printing process from OS
             0 MiB allocation reported by mallinfo(arena+hblkhd)
           327 MiB available memory on the node where the printing process lives
------------------
     ethr =  1.79E-08,  avg # of iterations =  2.0

     total cpu time spent up to now is      752.5 secs

     total energy              =    -426.37906552 Ry
     estimated scf accuracy    <       0.00000044 Ry

     iteration #  6     ecut=    45.00 Ry     beta= 0.40
     Davidson diagonalization with overlap

---- Real-time Memory Report at c_bands before calling an iterative solver
           422 MiB given to the printing process from OS
             0 MiB allocation reported by mallinfo(arena+hblkhd)
           302 MiB available memory on the node where the printing process lives
------------------
     ethr =  1.57E-09,  avg # of iterations =  2.0

     total cpu time spent up to now is      851.1 secs

     total energy              =    -426.37906558 Ry
     estimated scf accuracy    <       0.00000004 Ry

     iteration #  7     ecut=    45.00 Ry     beta= 0.40
     Davidson diagonalization with overlap

---- Real-time Memory Report at c_bands before calling an iterative solver
           422 MiB given to the printing process from OS
             0 MiB allocation reported by mallinfo(arena+hblkhd)
           301 MiB available memory on the node where the printing process lives
------------------
     ethr =  1.51E-10,  avg # of iterations =  2.1

     total cpu time spent up to now is      965.9 secs

     total energy              =    -426.37906560 Ry
     estimated scf accuracy    <          3.3E-09 Ry

     iteration #  8     ecut=    45.00 Ry     beta= 0.40
     Davidson diagonalization with overlap

---- Real-time Memory Report at c_bands before calling an iterative solver
           422 MiB given to the printing process from OS
             0 MiB allocation reported by mallinfo(arena+hblkhd)
           250 MiB available memory on the node where the printing process lives
------------------
