
     Program PWSCF v.7.4.1 starts on 25Dec2025 at  0:32:37 

     This program is part of the open-source Quantum ESPRESSO suite
     for quantum simulation of materials; please cite
         "P. Giannozzi et al., J. Phys.:Condens. Matter 21 395502 (2009);
         "P. Giannozzi et al., J. Phys.:Condens. Matter 29 465901 (2017);
         "P. Giannozzi et al., J. Chem. Phys. 152 154105 (2020);
          URL http://www.quantum-espresso.org", 
     in publications or presentations arising from this work. More details at
     http://www.quantum-espresso.org/quote

     Parallel version (MPI), running on     1 processors

     MPI processes distributed on     1 nodes
     515 MiB available memory on the printing compute node when the environment starts

     Waiting for input...
     Reading input from standard input
Warning: card &CELL ignored

     Current dimensions of program PWSCF are:
     Max number of different atomic species (ntypx) = 10
     Max number of k-points (npk) =  40000
     Max angular momentum in pseudopotentials (lmaxx) =  4
     Message from routine setup:
     using ibrav=0 with symmetry is DISCOURAGED, use correct ibrav instead

     Subspace diagonalization in iterative solution of the eigenvalue problem:
     a serial algorithm will be used


     G-vector sticks info
     --------------------
     sticks:   dense  smooth     PW     G-vecs:    dense   smooth      PW
     Sum        1497     747    235                37221    13147    2253

     Using Slab Decomposition



     bravais-lattice index     =            0
     lattice parameter (alat)  =       7.7006  a.u.
     unit-cell volume          =     322.8875 (a.u.)^3
     number of atoms/cell      =            2
     number of atomic types    =            1
     number of electrons       =        28.00
     number of Kohn-Sham states=           18
     kinetic-energy cutoff     =      45.0000  Ry
     charge density cutoff     =     360.0000  Ry
     scf convergence threshold =      4.0E-10
     mixing beta               =       0.4000
     number of iterations used =            8  plain     mixing
     Exchange-correlation= SLA  PW   PSX  PSC
                           (   1   4  10   8   0   0   0)

     celldm(1)=   7.700556  celldm(2)=   0.000000  celldm(3)=   0.000000
     celldm(4)=   0.000000  celldm(5)=   0.000000  celldm(6)=   0.000000

     crystal axes: (cart. coord. in units of alat)
               a(1) = (   0.000000   0.707107   0.707107 )  
               a(2) = (   0.707107  -0.028284   0.707107 )  
               a(3) = (   0.707107   0.678823   0.000000 )  

     reciprocal axes: (cart. coord. in units 2 pi/alat)
               b(1) = ( -0.678823  0.707107  0.707107 )  
               b(2) = (  0.678823 -0.707107  0.707107 )  
               b(3) = (  0.735391  0.707107 -0.707107 )  


     PseudoPot. # 1 for Ge read from file:
     ./pseudo/ge_pbesol_v1.4.uspp.F.UPF
     MD5 check sum: 7bed0412183f5e553a4d27ec7023354d
     Pseudo is Ultrasoft + core correction, Zval = 14.0
     Generated by new atomic code, or converted to UPF format
     Using radial grid of  873 points,  6 beta functions with: 
                l(1) =   0
                l(2) =   0
                l(3) =   1
                l(4) =   1
                l(5) =   2
                l(6) =   2
     Q(r) pseudized with  8 coefficients,  rinner =    1.400   1.400   1.400
                                                       1.400   1.400

     atomic species   valence    mass     pseudopotential
     Ge               14.00    72.64000     Ge( 1.00)

      4 Sym. Ops., with inversion, found ( 2 have fractional translation)


                                    s                        frac. trans.

      isym =  1     identity                                     

 cryst.   s( 1) = (     1          0          0      )
                  (     0          1          0      )
                  (     0          0          1      )

 cart.    s( 1) = (  1.0000000  0.0000000  0.0000000 )
                  ( -0.0000000  1.0000000 -0.0000000 )
                  (  0.0000000  0.0000000  1.0000000 )


      isym =  2     180 deg rotation - cart. axis [0,0,1]        

 cryst.   s( 2) = (     0          1         -1      )
                  (     1          0         -1      )
                  (     0          0         -1      )

 cart.    s( 2) = ( -1.0000000  0.0000000  0.0000000 )
                  (  0.0000000 -1.0000000  0.0000000 )
                  (  0.0000000  0.0000000  1.0000000 )


      isym =  3     inversion                                    

 cryst.   s( 3) = (    -1          0          0      )    f =( -0.2500000 )
                  (     0         -1          0      )       ( -0.2500000 )
                  (     0          0         -1      )       ( -0.2500000 )

 cart.    s( 3) = ( -1.0000000  0.0000000  0.0000000 )    f =( -0.3535534 )
                  (  0.0000000 -1.0000000  0.0000000 )       ( -0.3394113 )
                  (  0.0000000  0.0000000 -1.0000000 )       ( -0.3535534 )


      isym =  4     inv. 180 deg rotation - cart. axis [0,0,1]   

 cryst.   s( 4) = (     0         -1          1      )    f =( -0.2500000 )
                  (    -1          0          1      )       ( -0.2500000 )
                  (     0          0          1      )       ( -0.2500000 )

 cart.    s( 4) = (  1.0000000  0.0000000  0.0000000 )    f =( -0.3535534 )
                  ( -0.0000000  1.0000000 -0.0000000 )       ( -0.3394113 )
                  (  0.0000000  0.0000000 -1.0000000 )       ( -0.3535534 )


   Cartesian axes

     site n.     atom                  positions (alat units)
         1        Ge     tau(   1) = (   0.7071068   0.6788225   0.7071068  )
         2        Ge     tau(   2) = (   1.0606602   1.0182338   1.0606602  )

   Crystallographic axes

     site n.     atom                  positions (cryst. coord.)
         1        Ge     tau(   1) = (  0.5000000  0.5000000  0.5000000  )
         2        Ge     tau(   2) = (  0.7500000  0.7500000  0.7500000  )

     number of k points=   595  Marzari-Vanderbilt smearing, width (Ry)=  0.0200
                       cart. coord. in units 2pi/alat
        k(    1) = (   0.0000000   0.0000000   0.0000000), wk =   0.0009103
        k(    2) = (   0.0565685   0.0543928  -0.0543928), wk =   0.0036413
        k(    3) = (   0.1131371   0.1087857  -0.1087857), wk =   0.0036413
        k(    4) = (   0.1697056   0.1631785  -0.1631785), wk =   0.0036413
        k(    5) = (   0.2262742   0.2175713  -0.2175713), wk =   0.0036413
        k(    6) = (   0.2828427   0.2719641  -0.2719641), wk =   0.0036413
        k(    7) = (   0.3394113   0.3263570  -0.3263570), wk =   0.0036413
        k(    8) = (   0.0522171  -0.0543928   0.0543928), wk =   0.0036413
        k(    9) = (   0.1087857   0.0000000   0.0000000), wk =   0.0018207
        k(   10) = (   0.1653542   0.0543928  -0.0543928), wk =   0.0036413
        k(   11) = (   0.2219227   0.1087857  -0.1087857), wk =   0.0036413
        k(   12) = (   0.2784913   0.1631785  -0.1631785), wk =   0.0036413
        k(   13) = (   0.3350598   0.2175713  -0.2175713), wk =   0.0036413
        k(   14) = (   0.3916284   0.2719641  -0.2719641), wk =   0.0036413
        k(   15) = (  -0.2871941  -0.3807498   0.3807498), wk =   0.0036413
        k(   16) = (  -0.2306256  -0.3263570   0.3263570), wk =   0.0036413
        k(   17) = (  -0.1740571  -0.2719641   0.2719641), wk =   0.0036413
        k(   18) = (  -0.1174885  -0.2175713   0.2175713), wk =   0.0036413
        k(   19) = (  -0.0609200  -0.1631785   0.1631785), wk =   0.0036413
        k(   20) = (  -0.0043514  -0.1087857   0.1087857), wk =   0.0036413
        k(   21) = (   0.1044342  -0.1087857   0.1087857), wk =   0.0036413
        k(   22) = (   0.1610028  -0.0543928   0.0543928), wk =   0.0036413
        k(   23) = (   0.2175713   0.0000000   0.0000000), wk =   0.0018207
        k(   24) = (   0.2741399   0.0543928  -0.0543928), wk =   0.0036413
        k(   25) = (   0.3307084   0.1087857  -0.1087857), wk =   0.0036413
        k(   26) = (   0.3872769   0.1631785  -0.1631785), wk =   0.0036413
        k(   27) = (   0.4438455   0.2175713  -0.2175713), wk =   0.0036413
        k(   28) = (  -0.2349770  -0.4351426   0.4351426), wk =   0.0036413
        k(   29) = (  -0.1784085  -0.3807498   0.3807498), wk =   0.0036413
        k(   30) = (  -0.1218399  -0.3263570   0.3263570), wk =   0.0036413
        k(   31) = (  -0.0652714  -0.2719641   0.2719641), wk =   0.0036413
        k(   32) = (  -0.0087029  -0.2175713   0.2175713), wk =   0.0036413
        k(   33) = (   0.0478657  -0.1631785   0.1631785), wk =   0.0036413
        k(   34) = (   0.1566513  -0.1631785   0.1631785), wk =   0.0036413
        k(   35) = (   0.2132199  -0.1087857   0.1087857), wk =   0.0036413
        k(   36) = (   0.2697884  -0.0543928   0.0543928), wk =   0.0036413
        k(   37) = (   0.3263570   0.0000000   0.0000000), wk =   0.0018207
        k(   38) = (   0.3829255   0.0543928  -0.0543928), wk =   0.0036413
        k(   39) = (   0.4394941   0.1087857  -0.1087857), wk =   0.0036413
        k(   40) = (   0.4960626   0.1631785  -0.1631785), wk =   0.0036413
        k(   41) = (  -0.1827599  -0.4895355   0.4895355), wk =   0.0036413
        k(   42) = (  -0.1261914  -0.4351426   0.4351426), wk =   0.0036413
        k(   43) = (  -0.0696228  -0.3807498   0.3807498), wk =   0.0036413
        k(   44) = (  -0.0130543  -0.3263570   0.3263570), wk =   0.0036413
        k(   45) = (   0.0435143  -0.2719641   0.2719641), wk =   0.0036413
        k(   46) = (   0.1000828  -0.2175713   0.2175713), wk =   0.0036413
        k(   47) = (   0.2088685  -0.2175713   0.2175713), wk =   0.0036413
        k(   48) = (   0.2654370  -0.1631785   0.1631785), wk =   0.0036413
        k(   49) = (   0.3220055  -0.1087857   0.1087857), wk =   0.0036413
        k(   50) = (   0.3785741  -0.0543928   0.0543928), wk =   0.0036413
        k(   51) = (   0.4351426   0.0000000   0.0000000), wk =   0.0018207
        k(   52) = (   0.4917112   0.0543928  -0.0543928), wk =   0.0036413
        k(   53) = (   0.5482797   0.1087857  -0.1087857), wk =   0.0036413
        k(   54) = (  -0.1305428  -0.5439283   0.5439283), wk =   0.0036413
        k(   55) = (  -0.0739742  -0.4895355   0.4895355), wk =   0.0036413
        k(   56) = (  -0.0174057  -0.4351426   0.4351426), wk =   0.0036413
        k(   57) = (   0.0391628  -0.3807498   0.3807498), wk =   0.0036413
        k(   58) = (   0.0957314  -0.3263570   0.3263570), wk =   0.0036413
        k(   59) = (   0.1522999  -0.2719641   0.2719641), wk =   0.0036413
        k(   60) = (   0.2610856  -0.2719641   0.2719641), wk =   0.0036413
        k(   61) = (   0.3176541  -0.2175713   0.2175713), wk =   0.0036413
        k(   62) = (   0.3742227  -0.1631785   0.1631785), wk =   0.0036413
        k(   63) = (   0.4307912  -0.1087857   0.1087857), wk =   0.0036413
        k(   64) = (   0.4873598  -0.0543928   0.0543928), wk =   0.0036413
        k(   65) = (   0.5439283   0.0000000   0.0000000), wk =   0.0018207
        k(   66) = (   0.6004968   0.0543928  -0.0543928), wk =   0.0036413
        k(   67) = (  -0.0783257  -0.5983211   0.5983211), wk =   0.0036413
        k(   68) = (  -0.0217571  -0.5439283   0.5439283), wk =   0.0036413
        k(   69) = (   0.0348114  -0.4895355   0.4895355), wk =   0.0036413
        k(   70) = (   0.0913800  -0.4351426   0.4351426), wk =   0.0036413
        k(   71) = (   0.1479485  -0.3807498   0.3807498), wk =   0.0036413
        k(   72) = (   0.2045170  -0.3263570   0.3263570), wk =   0.0036413
        k(   73) = (   0.3133027  -0.3263570   0.3263570), wk =   0.0036413
        k(   74) = (   0.3698712  -0.2719641   0.2719641), wk =   0.0036413
        k(   75) = (   0.4264398  -0.2175713   0.2175713), wk =   0.0036413
        k(   76) = (   0.4830083  -0.1631785   0.1631785), wk =   0.0036413
        k(   77) = (   0.5395769  -0.1087857   0.1087857), wk =   0.0036413
        k(   78) = (   0.5961454  -0.0543928   0.0543928), wk =   0.0036413
        k(   79) = (   0.6527140   0.0000000   0.0000000), wk =   0.0018207
        k(   80) = (  -0.0261086  -0.6527140   0.6527140), wk =   0.0036413
        k(   81) = (   0.0304600  -0.5983211   0.5983211), wk =   0.0036413
        k(   82) = (   0.0870285  -0.5439283   0.5439283), wk =   0.0036413
        k(   83) = (   0.1435971  -0.4895355   0.4895355), wk =   0.0036413
        k(   84) = (   0.2001656  -0.4351426   0.4351426), wk =   0.0036413
        k(   85) = (   0.2567342  -0.3807498   0.3807498), wk =   0.0036413
        k(   86) = (   0.0043514   0.1087857  -0.0000000), wk =   0.0018207
        k(   87) = (   0.0609200   0.1631785  -0.0543928), wk =   0.0036413
        k(   88) = (   0.1174885   0.2175713  -0.1087857), wk =   0.0036413
        k(   89) = (   0.1740571   0.2719641  -0.1631785), wk =   0.0036413
        k(   90) = (   0.2306256   0.3263570  -0.2175713), wk =   0.0036413
        k(   91) = (   0.2871941   0.3807498  -0.2719641), wk =   0.0036413
        k(   92) = (  -0.3916284  -0.2719641   0.3807498), wk =   0.0036413
        k(   93) = (  -0.3350598  -0.2175713   0.3263570), wk =   0.0036413
        k(   94) = (  -0.2784913  -0.1631785   0.2719641), wk =   0.0036413
        k(   95) = (  -0.2219227  -0.1087857   0.2175713), wk =   0.0036413
        k(   96) = (  -0.1653542  -0.0543928   0.1631785), wk =   0.0036413
        k(   97) = (  -0.1087857   0.0000000   0.1087857), wk =   0.0036413
        k(   98) = (   0.0000000   0.0000000   0.1087857), wk =   0.0018207
        k(   99) = (   0.1131371   0.1087857  -0.0000000), wk =   0.0018207
        k(  100) = (   0.1697056   0.1631785  -0.0543928), wk =   0.0036413
        k(  101) = (   0.2262742   0.2175713  -0.1087857), wk =   0.0036413
        k(  102) = (   0.2828427   0.2719641  -0.1631785), wk =   0.0036413
        k(  103) = (   0.3394113   0.3263570  -0.2175713), wk =   0.0036413
        k(  104) = (  -0.3394113  -0.3263570   0.4351426), wk =   0.0036413
        k(  105) = (  -0.2828427  -0.2719641   0.3807498), wk =   0.0036413
        k(  106) = (  -0.2262742  -0.2175713   0.3263570), wk =   0.0036413
        k(  107) = (  -0.1697056  -0.1631785   0.2719641), wk =   0.0036413
        k(  108) = (  -0.1131371  -0.1087857   0.2175713), wk =   0.0036413
        k(  109) = (  -0.0565685  -0.0543928   0.1631785), wk =   0.0036413
        k(  110) = (   0.0522171  -0.0543928   0.1631785), wk =   0.0036413
        k(  111) = (   0.2219227   0.1087857  -0.0000000), wk =   0.0018207
        k(  112) = (   0.2784913   0.1631785  -0.0543928), wk =   0.0036413
        k(  113) = (   0.3350598   0.2175713  -0.1087857), wk =   0.0036413
        k(  114) = (   0.3916284   0.2719641  -0.1631785), wk =   0.0036413
        k(  115) = (  -0.2871941  -0.3807498   0.4895355), wk =   0.0036413
        k(  116) = (  -0.2306256  -0.3263570   0.4351426), wk =   0.0036413
        k(  117) = (  -0.1740571  -0.2719641   0.3807498), wk =   0.0036413
        k(  118) = (  -0.1174885  -0.2175713   0.3263570), wk =   0.0036413
        k(  119) = (  -0.0609200  -0.1631785   0.2719641), wk =   0.0036413
        k(  120) = (  -0.0043514  -0.1087857   0.2175713), wk =   0.0036413
        k(  121) = (   0.1044342  -0.1087857   0.2175713), wk =   0.0036413
        k(  122) = (   0.1610028  -0.0543928   0.1631785), wk =   0.0036413
        k(  123) = (   0.2175713  -0.0000000   0.1087857), wk =   0.0036413
        k(  124) = (   0.3307084   0.1087857  -0.0000000), wk =   0.0018207
        k(  125) = (   0.3872769   0.1631785  -0.0543928), wk =   0.0036413
        k(  126) = (   0.4438455   0.2175713  -0.1087857), wk =   0.0036413
        k(  127) = (  -0.2349770  -0.4351426   0.5439283), wk =   0.0036413
        k(  128) = (  -0.1784085  -0.3807498   0.4895355), wk =   0.0036413
        k(  129) = (  -0.1218399  -0.3263570   0.4351426), wk =   0.0036413
        k(  130) = (  -0.0652714  -0.2719641   0.3807498), wk =   0.0036413
        k(  131) = (  -0.0087029  -0.2175713   0.3263570), wk =   0.0036413
        k(  132) = (   0.0478657  -0.1631785   0.2719641), wk =   0.0036413
        k(  133) = (   0.1566513  -0.1631785   0.2719641), wk =   0.0036413
        k(  134) = (   0.2132199  -0.1087857   0.2175713), wk =   0.0036413
        k(  135) = (   0.2697884  -0.0543928   0.1631785), wk =   0.0036413
        k(  136) = (   0.3263570   0.0000000   0.1087857), wk =   0.0036413
        k(  137) = (   0.4394941   0.1087857   0.0000000), wk =   0.0018207
        k(  138) = (   0.4960626   0.1631785  -0.0543928), wk =   0.0036413
        k(  139) = (  -0.1827599  -0.4895355   0.5983211), wk =   0.0036413
        k(  140) = (  -0.1261914  -0.4351426   0.5439283), wk =   0.0036413
        k(  141) = (  -0.0696228  -0.3807498   0.4895355), wk =   0.0036413
        k(  142) = (  -0.0130543  -0.3263570   0.4351426), wk =   0.0036413
        k(  143) = (   0.0435143  -0.2719641   0.3807498), wk =   0.0036413
        k(  144) = (   0.1000828  -0.2175713   0.3263570), wk =   0.0036413
        k(  145) = (   0.2088685  -0.2175713   0.3263570), wk =   0.0036413
        k(  146) = (   0.2654370  -0.1631785   0.2719641), wk =   0.0036413
        k(  147) = (   0.3220055  -0.1087857   0.2175713), wk =   0.0036413
        k(  148) = (   0.3785741  -0.0543928   0.1631785), wk =   0.0036413
        k(  149) = (   0.4351426   0.0000000   0.1087857), wk =   0.0036413
        k(  150) = (   0.5482797   0.1087857  -0.0000000), wk =   0.0018207
        k(  151) = (  -0.1305428  -0.5439283   0.6527140), wk =   0.0036413
        k(  152) = (  -0.0739742  -0.4895355   0.5983211), wk =   0.0036413
        k(  153) = (  -0.0174057  -0.4351426   0.5439283), wk =   0.0036413
        k(  154) = (   0.0391628  -0.3807498   0.4895355), wk =   0.0036413
        k(  155) = (   0.0957314  -0.3263570   0.4351426), wk =   0.0036413
        k(  156) = (   0.1522999  -0.2719641   0.3807498), wk =   0.0036413
        k(  157) = (   0.2610856  -0.2719641   0.3807498), wk =   0.0036413
        k(  158) = (   0.3176541  -0.2175713   0.3263570), wk =   0.0036413
        k(  159) = (   0.3742227  -0.1631785   0.2719641), wk =   0.0036413
        k(  160) = (   0.4307912  -0.1087857   0.2175713), wk =   0.0036413
        k(  161) = (   0.4873598  -0.0543928   0.1631785), wk =   0.0036413
        k(  162) = (   0.5439283   0.0000000   0.1087857), wk =   0.0036413
        k(  163) = (  -0.0783257  -0.5983211   0.7071068), wk =   0.0018207
        k(  164) = (  -0.0217571  -0.5439283   0.6527140), wk =   0.0036413
        k(  165) = (   0.0348114  -0.4895355   0.5983211), wk =   0.0036413
        k(  166) = (   0.0913800  -0.4351426   0.5439283), wk =   0.0036413
        k(  167) = (   0.1479485  -0.3807498   0.4895355), wk =   0.0036413
        k(  168) = (   0.2045170  -0.3263570   0.4351426), wk =   0.0036413
        k(  169) = (  -0.3655198   0.3807498  -0.2719641), wk =   0.0036413
        k(  170) = (  -0.3089513   0.4351426  -0.3263570), wk =   0.0036413
        k(  171) = (  -0.2523827   0.4895355  -0.3807498), wk =   0.0036413
        k(  172) = (  -0.1958142   0.5439283  -0.4351426), wk =   0.0036413
        k(  173) = (  -0.1392456   0.5983211  -0.4895355), wk =   0.0036413
        k(  174) = (  -0.0826771   0.6527140  -0.5439283), wk =   0.0036413
        k(  175) = (  -0.0261086   0.7071068  -0.5983211), wk =   0.0036413
        k(  176) = (  -0.6483625   0.1087857  -0.0000000), wk =   0.0018207
        k(  177) = (  -0.5917940   0.1631785  -0.0543928), wk =   0.0036413
        k(  178) = (  -0.5352254   0.2175713  -0.1087857), wk =   0.0036413
        k(  179) = (  -0.4786569   0.2719641  -0.1631785), wk =   0.0036413
        k(  180) = (  -0.4220884   0.3263570  -0.2175713), wk =   0.0036413
        k(  181) = (  -0.3133027   0.3263570  -0.2175713), wk =   0.0036413
        k(  182) = (  -0.2567342   0.3807498  -0.2719641), wk =   0.0036413
        k(  183) = (  -0.2001656   0.4351426  -0.3263570), wk =   0.0036413
        k(  184) = (  -0.1435971   0.4895355  -0.3807498), wk =   0.0036413
        k(  185) = (  -0.0870285   0.5439283  -0.4351426), wk =   0.0036413
        k(  186) = (  -0.0304600   0.5983211  -0.4895355), wk =   0.0036413
        k(  187) = (   0.0261086   0.6527140  -0.5439283), wk =   0.0036413
        k(  188) = (  -0.5395769   0.1087857   0.0000000), wk =   0.0018207
        k(  189) = (  -0.4830083   0.1631785  -0.0543928), wk =   0.0036413
        k(  190) = (  -0.4264398   0.2175713  -0.1087857), wk =   0.0036413
        k(  191) = (  -0.3698712   0.2719641  -0.1631785), wk =   0.0036413
        k(  192) = (  -0.2610856   0.2719641  -0.1631785), wk =   0.0036413
        k(  193) = (  -0.2045170   0.3263570  -0.2175713), wk =   0.0036413
        k(  194) = (  -0.1479485   0.3807498  -0.2719641), wk =   0.0036413
        k(  195) = (  -0.0913800   0.4351426  -0.3263570), wk =   0.0036413
        k(  196) = (  -0.0348114   0.4895355  -0.3807498), wk =   0.0036413
        k(  197) = (   0.0217571   0.5439283  -0.4351426), wk =   0.0036413
        k(  198) = (   0.0783257   0.5983211  -0.4895355), wk =   0.0036413
        k(  199) = (  -0.6004968  -0.0543928   0.1631785), wk =   0.0036413
        k(  200) = (  -0.4307912   0.1087857  -0.0000000), wk =   0.0018207
        k(  201) = (  -0.3742227   0.1631785  -0.0543928), wk =   0.0036413
        k(  202) = (  -0.3176541   0.2175713  -0.1087857), wk =   0.0036413
        k(  203) = (  -0.2088685   0.2175713  -0.1087857), wk =   0.0036413
        k(  204) = (  -0.1522999   0.2719641  -0.1631785), wk =   0.0036413
        k(  205) = (  -0.0957314   0.3263570  -0.2175713), wk =   0.0036413
        k(  206) = (  -0.0391628   0.3807498  -0.2719641), wk =   0.0036413
        k(  207) = (   0.0174057   0.4351426  -0.3263570), wk =   0.0036413
        k(  208) = (   0.0739742   0.4895355  -0.3807498), wk =   0.0036413
        k(  209) = (   0.1305428   0.5439283  -0.4351426), wk =   0.0036413
        k(  210) = (  -0.5482797  -0.1087857   0.2175713), wk =   0.0036413
        k(  211) = (  -0.4917112  -0.0543928   0.1631785), wk =   0.0036413
        k(  212) = (  -0.3220055   0.1087857   0.0000000), wk =   0.0018207
        k(  213) = (  -0.2654370   0.1631785  -0.0543928), wk =   0.0036413
        k(  214) = (  -0.1566513   0.1631785  -0.0543928), wk =   0.0036413
        k(  215) = (  -0.1000828   0.2175713  -0.1087857), wk =   0.0036413
        k(  216) = (  -0.0435143   0.2719641  -0.1631785), wk =   0.0036413
        k(  217) = (   0.0130543   0.3263570  -0.2175713), wk =   0.0036413
        k(  218) = (   0.0696228   0.3807498  -0.2719641), wk =   0.0036413
        k(  219) = (   0.1261914   0.4351426  -0.3263570), wk =   0.0036413
        k(  220) = (   0.1827599   0.4895355  -0.3807498), wk =   0.0036413
        k(  221) = (  -0.4960626  -0.1631785   0.2719641), wk =   0.0036413
        k(  222) = (  -0.4394941  -0.1087857   0.2175713), wk =   0.0036413
        k(  223) = (  -0.3829255  -0.0543928   0.1631785), wk =   0.0036413
        k(  224) = (  -0.2132199   0.1087857  -0.0000000), wk =   0.0018207
        k(  225) = (  -0.1044342   0.1087857   0.0000000), wk =   0.0018207
        k(  226) = (  -0.0478657   0.1631785  -0.0543928), wk =   0.0036413
        k(  227) = (   0.0087029   0.2175713  -0.1087857), wk =   0.0036413
        k(  228) = (   0.0652714   0.2719641  -0.1631785), wk =   0.0036413
        k(  229) = (   0.1218399   0.3263570  -0.2175713), wk =   0.0036413
        k(  230) = (   0.1784085   0.3807498  -0.2719641), wk =   0.0036413
        k(  231) = (   0.2349770   0.4351426  -0.3263570), wk =   0.0036413
        k(  232) = (  -0.4438455  -0.2175713   0.3263570), wk =   0.0036413
        k(  233) = (  -0.3872769  -0.1631785   0.2719641), wk =   0.0036413
        k(  234) = (  -0.3307084  -0.1087857   0.2175713), wk =   0.0036413
        k(  235) = (  -0.2741399  -0.0543928   0.1631785), wk =   0.0036413
        k(  236) = (   0.0087029   0.2175713  -0.0000000), wk =   0.0018207
        k(  237) = (   0.0652714   0.2719641  -0.0543928), wk =   0.0036413
        k(  238) = (   0.1218399   0.3263570  -0.1087857), wk =   0.0036413
        k(  239) = (   0.1784085   0.3807498  -0.1631785), wk =   0.0036413
        k(  240) = (   0.2349770   0.4351426  -0.2175713), wk =   0.0036413
        k(  241) = (  -0.4438455  -0.2175713   0.4351426), wk =   0.0036413
        k(  242) = (  -0.3872769  -0.1631785   0.3807498), wk =   0.0036413
        k(  243) = (  -0.3307084  -0.1087857   0.3263570), wk =   0.0036413
        k(  244) = (  -0.2741399  -0.0543928   0.2719641), wk =   0.0036413
        k(  245) = (  -0.2175713   0.0000000   0.2175713), wk =   0.0036413
        k(  246) = (   0.1174885   0.2175713  -0.0000000), wk =   0.0018207
        k(  247) = (   0.1740571   0.2719641  -0.0543928), wk =   0.0036413
        k(  248) = (   0.2306256   0.3263570  -0.1087857), wk =   0.0036413
        k(  249) = (   0.2871941   0.3807498  -0.1631785), wk =   0.0036413
        k(  250) = (  -0.3916284  -0.2719641   0.4895355), wk =   0.0036413
        k(  251) = (  -0.3350598  -0.2175713   0.4351426), wk =   0.0036413
        k(  252) = (  -0.2784913  -0.1631785   0.3807498), wk =   0.0036413
        k(  253) = (  -0.2219227  -0.1087857   0.3263570), wk =   0.0036413
        k(  254) = (  -0.1653542  -0.0543928   0.2719641), wk =   0.0036413
        k(  255) = (  -0.1087857   0.0000000   0.2175713), wk =   0.0036413
        k(  256) = (   0.0000000   0.0000000   0.2175713), wk =   0.0018207
        k(  257) = (   0.2262742   0.2175713  -0.0000000), wk =   0.0018207
        k(  258) = (   0.2828427   0.2719641  -0.0543928), wk =   0.0036413
        k(  259) = (   0.3394113   0.3263570  -0.1087857), wk =   0.0036413
        k(  260) = (  -0.3394113  -0.3263570   0.5439283), wk =   0.0036413
        k(  261) = (  -0.2828427  -0.2719641   0.4895355), wk =   0.0036413
        k(  262) = (  -0.2262742  -0.2175713   0.4351426), wk =   0.0036413
        k(  263) = (  -0.1697056  -0.1631785   0.3807498), wk =   0.0036413
        k(  264) = (  -0.1131371  -0.1087857   0.3263570), wk =   0.0036413
        k(  265) = (  -0.0565685  -0.0543928   0.2719641), wk =   0.0036413
        k(  266) = (   0.0522171  -0.0543928   0.2719641), wk =   0.0036413
        k(  267) = (   0.3350598   0.2175713   0.0000000), wk =   0.0018207
        k(  268) = (   0.3916284   0.2719641  -0.0543928), wk =   0.0036413
        k(  269) = (  -0.2871941  -0.3807498   0.5983211), wk =   0.0036413
        k(  270) = (  -0.2306256  -0.3263570   0.5439283), wk =   0.0036413
        k(  271) = (  -0.1740571  -0.2719641   0.4895355), wk =   0.0036413
        k(  272) = (  -0.1174885  -0.2175713   0.4351426), wk =   0.0036413
        k(  273) = (  -0.0609200  -0.1631785   0.3807498), wk =   0.0036413
        k(  274) = (  -0.0043514  -0.1087857   0.3263570), wk =   0.0036413
        k(  275) = (   0.1044342  -0.1087857   0.3263570), wk =   0.0036413
        k(  276) = (   0.1610028  -0.0543928   0.2719641), wk =   0.0036413
        k(  277) = (   0.4438455   0.2175713  -0.0000000), wk =   0.0018207
        k(  278) = (  -0.2349770  -0.4351426   0.6527140), wk =   0.0036413
        k(  279) = (  -0.1784085  -0.3807498   0.5983211), wk =   0.0036413
        k(  280) = (  -0.1218399  -0.3263570   0.5439283), wk =   0.0036413
        k(  281) = (  -0.0652714  -0.2719641   0.4895355), wk =   0.0036413
        k(  282) = (  -0.0087029  -0.2175713   0.4351426), wk =   0.0036413
        k(  283) = (   0.0478657  -0.1631785   0.3807498), wk =   0.0036413
        k(  284) = (   0.1566513  -0.1631785   0.3807498), wk =   0.0036413
        k(  285) = (   0.2132199  -0.1087857   0.3263570), wk =   0.0036413
        k(  286) = (   0.2697884  -0.0543928   0.2719641), wk =   0.0036413
        k(  287) = (   0.3263570   0.0000000   0.2175713), wk =   0.0036413
        k(  288) = (  -0.1827599  -0.4895355   0.7071068), wk =   0.0018207
        k(  289) = (  -0.1261914  -0.4351426   0.6527140), wk =   0.0036413
        k(  290) = (  -0.0696228  -0.3807498   0.5983211), wk =   0.0036413
        k(  291) = (  -0.0130543  -0.3263570   0.5439283), wk =   0.0036413
        k(  292) = (   0.0435143  -0.2719641   0.4895355), wk =   0.0036413
        k(  293) = (   0.1000828  -0.2175713   0.4351426), wk =   0.0036413
        k(  294) = (   0.2088685  -0.2175713   0.4351426), wk =   0.0036413
        k(  295) = (   0.2654370  -0.1631785   0.3807498), wk =   0.0036413
        k(  296) = (   0.3220055  -0.1087857   0.3263570), wk =   0.0036413
        k(  297) = (   0.3785741  -0.0543928   0.2719641), wk =   0.0036413
        k(  298) = (   0.4351426  -0.0000000   0.2175713), wk =   0.0036413
        k(  299) = (  -0.0739742  -0.4895355   0.7071068), wk =   0.0018207
        k(  300) = (  -0.0174057  -0.4351426   0.6527140), wk =   0.0036413
        k(  301) = (   0.0391628  -0.3807498   0.5983211), wk =   0.0036413
        k(  302) = (   0.0957314  -0.3263570   0.5439283), wk =   0.0036413
        k(  303) = (   0.1522999  -0.2719641   0.4895355), wk =   0.0036413
        k(  304) = (  -0.4177369   0.4351426  -0.2175713), wk =   0.0036413
        k(  305) = (  -0.3611684   0.4895355  -0.2719641), wk =   0.0036413
        k(  306) = (  -0.3045998   0.5439283  -0.3263570), wk =   0.0036413
        k(  307) = (  -0.2480313   0.5983211  -0.3807498), wk =   0.0036413
        k(  308) = (  -0.1914628   0.6527140  -0.4351426), wk =   0.0036413
        k(  309) = (  -0.1348942   0.7071068  -0.4895355), wk =   0.0036413
        k(  310) = (  -0.6440111   0.2175713  -0.0000000), wk =   0.0018207
        k(  311) = (  -0.5874426   0.2719641  -0.0543928), wk =   0.0036413
        k(  312) = (  -0.5308740   0.3263570  -0.1087857), wk =   0.0036413
        k(  313) = (  -0.4743055   0.3807498  -0.1631785), wk =   0.0036413
        k(  314) = (  -0.3655198   0.3807498  -0.1631785), wk =   0.0036413
        k(  315) = (  -0.3089513   0.4351426  -0.2175713), wk =   0.0036413
        k(  316) = (  -0.2523827   0.4895355  -0.2719641), wk =   0.0036413
        k(  317) = (  -0.1958142   0.5439283  -0.3263570), wk =   0.0036413
        k(  318) = (  -0.1392456   0.5983211  -0.3807498), wk =   0.0036413
        k(  319) = (  -0.0826771   0.6527140  -0.4351426), wk =   0.0036413
        k(  320) = (  -0.0261086   0.7071068  -0.4895355), wk =   0.0036413
        k(  321) = (  -0.5352254   0.2175713  -0.0000000), wk =   0.0018207
        k(  322) = (  -0.4786569   0.2719641  -0.0543928), wk =   0.0036413
        k(  323) = (  -0.4220884   0.3263570  -0.1087857), wk =   0.0036413
        k(  324) = (  -0.3133027   0.3263570  -0.1087857), wk =   0.0036413
        k(  325) = (  -0.2567342   0.3807498  -0.1631785), wk =   0.0036413
        k(  326) = (  -0.2001656   0.4351426  -0.2175713), wk =   0.0036413
        k(  327) = (  -0.1435971   0.4895355  -0.2719641), wk =   0.0036413
        k(  328) = (  -0.0870285   0.5439283  -0.3263570), wk =   0.0036413
        k(  329) = (  -0.0304600   0.5983211  -0.3807498), wk =   0.0036413
        k(  330) = (   0.0261086   0.6527140  -0.4351426), wk =   0.0036413
        k(  331) = (  -0.4264398   0.2175713  -0.0000000), wk =   0.0018207
        k(  332) = (  -0.3698712   0.2719641  -0.0543928), wk =   0.0036413
        k(  333) = (  -0.2610856   0.2719641  -0.0543928), wk =   0.0036413
        k(  334) = (  -0.2045170   0.3263570  -0.1087857), wk =   0.0036413
        k(  335) = (  -0.1479485   0.3807498  -0.1631785), wk =   0.0036413
        k(  336) = (  -0.0913800   0.4351426  -0.2175713), wk =   0.0036413
        k(  337) = (  -0.0348114   0.4895355  -0.2719641), wk =   0.0036413
        k(  338) = (   0.0217571   0.5439283  -0.3263570), wk =   0.0036413
        k(  339) = (   0.0783257   0.5983211  -0.3807498), wk =   0.0036413
        k(  340) = (  -0.6004968  -0.0543928   0.2719641), wk =   0.0036413
        k(  341) = (  -0.3176541   0.2175713  -0.0000000), wk =   0.0018207
        k(  342) = (  -0.2088685   0.2175713  -0.0000000), wk =   0.0018207
        k(  343) = (  -0.1522999   0.2719641  -0.0543928), wk =   0.0036413
        k(  344) = (  -0.0957314   0.3263570  -0.1087857), wk =   0.0036413
        k(  345) = (  -0.0391628   0.3807498  -0.1631785), wk =   0.0036413
        k(  346) = (   0.0174057   0.4351426  -0.2175713), wk =   0.0036413
        k(  347) = (   0.0739742   0.4895355  -0.2719641), wk =   0.0036413
        k(  348) = (   0.1305428   0.5439283  -0.3263570), wk =   0.0036413
        k(  349) = (  -0.5482797  -0.1087857   0.3263570), wk =   0.0036413
        k(  350) = (  -0.4917112  -0.0543928   0.2719641), wk =   0.0036413
        k(  351) = (  -0.1000828   0.2175713   0.0000000), wk =   0.0018207
        k(  352) = (  -0.0435143   0.2719641  -0.0543928), wk =   0.0036413
        k(  353) = (   0.0130543   0.3263570  -0.1087857), wk =   0.0036413
        k(  354) = (   0.0696228   0.3807498  -0.1631785), wk =   0.0036413
        k(  355) = (   0.1261914   0.4351426  -0.2175713), wk =   0.0036413
        k(  356) = (   0.1827599   0.4895355  -0.2719641), wk =   0.0036413
        k(  357) = (  -0.4960626  -0.1631785   0.3807498), wk =   0.0036413
        k(  358) = (  -0.4394941  -0.1087857   0.3263570), wk =   0.0036413
        k(  359) = (  -0.3829255  -0.0543928   0.2719641), wk =   0.0036413
        k(  360) = (   0.0130543   0.3263570  -0.0000000), wk =   0.0018207
        k(  361) = (   0.0696228   0.3807498  -0.0543928), wk =   0.0036413
        k(  362) = (   0.1261914   0.4351426  -0.1087857), wk =   0.0036413
        k(  363) = (   0.1827599   0.4895355  -0.1631785), wk =   0.0036413
        k(  364) = (  -0.4960626  -0.1631785   0.4895355), wk =   0.0036413
        k(  365) = (  -0.4394941  -0.1087857   0.4351426), wk =   0.0036413
        k(  366) = (  -0.3829255  -0.0543928   0.3807498), wk =   0.0036413
        k(  367) = (  -0.3263570   0.0000000   0.3263570), wk =   0.0036413
        k(  368) = (   0.1218399   0.3263570  -0.0000000), wk =   0.0018207
        k(  369) = (   0.1784085   0.3807498  -0.0543928), wk =   0.0036413
        k(  370) = (   0.2349770   0.4351426  -0.1087857), wk =   0.0036413
        k(  371) = (  -0.4438455  -0.2175713   0.5439283), wk =   0.0036413
        k(  372) = (  -0.3872769  -0.1631785   0.4895355), wk =   0.0036413
        k(  373) = (  -0.3307084  -0.1087857   0.4351426), wk =   0.0036413
        k(  374) = (  -0.2741399  -0.0543928   0.3807498), wk =   0.0036413
        k(  375) = (  -0.2175713   0.0000000   0.3263570), wk =   0.0036413
        k(  376) = (   0.2306256   0.3263570  -0.0000000), wk =   0.0018207
        k(  377) = (   0.2871941   0.3807498  -0.0543928), wk =   0.0036413
        k(  378) = (  -0.3916284  -0.2719641   0.5983211), wk =   0.0036413
        k(  379) = (  -0.3350598  -0.2175713   0.5439283), wk =   0.0036413
        k(  380) = (  -0.2784913  -0.1631785   0.4895355), wk =   0.0036413
        k(  381) = (  -0.2219227  -0.1087857   0.4351426), wk =   0.0036413
        k(  382) = (  -0.1653542  -0.0543928   0.3807498), wk =   0.0036413
        k(  383) = (  -0.1087857   0.0000000   0.3263570), wk =   0.0036413
        k(  384) = (   0.0000000   0.0000000   0.3263570), wk =   0.0018207
        k(  385) = (   0.3394113   0.3263570  -0.0000000), wk =   0.0018207
        k(  386) = (  -0.3394113  -0.3263570   0.6527140), wk =   0.0036413
        k(  387) = (  -0.2828427  -0.2719641   0.5983211), wk =   0.0036413
        k(  388) = (  -0.2262742  -0.2175713   0.5439283), wk =   0.0036413
        k(  389) = (  -0.1697056  -0.1631785   0.4895355), wk =   0.0036413
        k(  390) = (  -0.1131371  -0.1087857   0.4351426), wk =   0.0036413
        k(  391) = (  -0.0565685  -0.0543928   0.3807498), wk =   0.0036413
        k(  392) = (   0.0522171  -0.0543928   0.3807498), wk =   0.0036413
        k(  393) = (  -0.2871941  -0.3807498   0.7071068), wk =   0.0018207
        k(  394) = (  -0.2306256  -0.3263570   0.6527140), wk =   0.0036413
        k(  395) = (  -0.1740571  -0.2719641   0.5983211), wk =   0.0036413
        k(  396) = (  -0.1174885  -0.2175713   0.5439283), wk =   0.0036413
        k(  397) = (  -0.0609200  -0.1631785   0.4895355), wk =   0.0036413
        k(  398) = (  -0.0043514  -0.1087857   0.4351426), wk =   0.0036413
        k(  399) = (   0.1044342  -0.1087857   0.4351426), wk =   0.0036413
        k(  400) = (   0.1610028  -0.0543928   0.3807498), wk =   0.0036413
        k(  401) = (  -0.1784085  -0.3807498   0.7071068), wk =   0.0018207
        k(  402) = (  -0.1218399  -0.3263570   0.6527140), wk =   0.0036413
        k(  403) = (  -0.0652714  -0.2719641   0.5983211), wk =   0.0036413
        k(  404) = (  -0.0087029  -0.2175713   0.5439283), wk =   0.0036413
        k(  405) = (   0.0478657  -0.1631785   0.4895355), wk =   0.0036413
        k(  406) = (   0.1566513  -0.1631785   0.4895355), wk =   0.0036413
        k(  407) = (   0.2132199  -0.1087857   0.4351426), wk =   0.0036413
        k(  408) = (   0.2697884  -0.0543928   0.3807498), wk =   0.0036413
        k(  409) = (  -0.0696228  -0.3807498   0.7071068), wk =   0.0018207
        k(  410) = (  -0.0130543  -0.3263570   0.6527140), wk =   0.0036413
        k(  411) = (   0.0435143  -0.2719641   0.5983211), wk =   0.0036413
        k(  412) = (   0.1000828  -0.2175713   0.5439283), wk =   0.0036413
        k(  413) = (  -0.4699540   0.4895355  -0.1631785), wk =   0.0036413
        k(  414) = (  -0.4133855   0.5439283  -0.2175713), wk =   0.0036413
        k(  415) = (  -0.3568170   0.5983211  -0.2719641), wk =   0.0036413
        k(  416) = (  -0.3002484   0.6527140  -0.3263570), wk =   0.0036413
        k(  417) = (  -0.2436799   0.7071068  -0.3807498), wk =   0.0036413
        k(  418) = (  -0.6396597   0.3263570  -0.0000000), wk =   0.0018207
        k(  419) = (  -0.5830911   0.3807498  -0.0543928), wk =   0.0036413
        k(  420) = (  -0.5265226   0.4351426  -0.1087857), wk =   0.0036413
        k(  421) = (  -0.4177369   0.4351426  -0.1087857), wk =   0.0036413
        k(  422) = (  -0.3611684   0.4895355  -0.1631785), wk =   0.0036413
        k(  423) = (  -0.3045998   0.5439283  -0.2175713), wk =   0.0036413
        k(  424) = (  -0.2480313   0.5983211  -0.2719641), wk =   0.0036413
        k(  425) = (  -0.1914628   0.6527140  -0.3263570), wk =   0.0036413
        k(  426) = (  -0.1348942   0.7071068  -0.3807498), wk =   0.0036413
        k(  427) = (  -0.5308740   0.3263570   0.0000000), wk =   0.0018207
        k(  428) = (  -0.4743055   0.3807498  -0.0543928), wk =   0.0036413
        k(  429) = (  -0.3655198   0.3807498  -0.0543928), wk =   0.0036413
        k(  430) = (  -0.3089513   0.4351426  -0.1087857), wk =   0.0036413
        k(  431) = (  -0.2523827   0.4895355  -0.1631785), wk =   0.0036413
        k(  432) = (  -0.1958142   0.5439283  -0.2175713), wk =   0.0036413
        k(  433) = (  -0.1392456   0.5983211  -0.2719641), wk =   0.0036413
        k(  434) = (  -0.0826771   0.6527140  -0.3263570), wk =   0.0036413
        k(  435) = (  -0.0261086   0.7071068  -0.3807498), wk =   0.0036413
        k(  436) = (  -0.4220884   0.3263570  -0.0000000), wk =   0.0018207
        k(  437) = (  -0.3133027   0.3263570   0.0000000), wk =   0.0018207
        k(  438) = (  -0.2567342   0.3807498  -0.0543928), wk =   0.0036413
        k(  439) = (  -0.2001656   0.4351426  -0.1087857), wk =   0.0036413
        k(  440) = (  -0.1435971   0.4895355  -0.1631785), wk =   0.0036413
        k(  441) = (  -0.0870285   0.5439283  -0.2175713), wk =   0.0036413
        k(  442) = (  -0.0304600   0.5983211  -0.2719641), wk =   0.0036413
        k(  443) = (   0.0261086   0.6527140  -0.3263570), wk =   0.0036413
        k(  444) = (  -0.2045170   0.3263570  -0.0000000), wk =   0.0018207
        k(  445) = (  -0.1479485   0.3807498  -0.0543928), wk =   0.0036413
        k(  446) = (  -0.0913800   0.4351426  -0.1087857), wk =   0.0036413
        k(  447) = (  -0.0348114   0.4895355  -0.1631785), wk =   0.0036413
        k(  448) = (   0.0217571   0.5439283  -0.2175713), wk =   0.0036413
        k(  449) = (   0.0783257   0.5983211  -0.2719641), wk =   0.0036413
        k(  450) = (  -0.6004968  -0.0543928   0.3807498), wk =   0.0036413
        k(  451) = (  -0.0957314   0.3263570  -0.0000000), wk =   0.0018207
        k(  452) = (  -0.0391628   0.3807498  -0.0543928), wk =   0.0036413
        k(  453) = (   0.0174057   0.4351426  -0.1087857), wk =   0.0036413
        k(  454) = (   0.0739742   0.4895355  -0.1631785), wk =   0.0036413
        k(  455) = (   0.1305428   0.5439283  -0.2175713), wk =   0.0036413
        k(  456) = (  -0.5482797  -0.1087857   0.4351426), wk =   0.0036413
        k(  457) = (  -0.4917112  -0.0543928   0.3807498), wk =   0.0036413
        k(  458) = (   0.0174057   0.4351426  -0.0000000), wk =   0.0018207
        k(  459) = (   0.0739742   0.4895355  -0.0543928), wk =   0.0036413
        k(  460) = (   0.1305428   0.5439283  -0.1087857), wk =   0.0036413
        k(  461) = (  -0.5482797  -0.1087857   0.5439283), wk =   0.0036413
        k(  462) = (  -0.4917112  -0.0543928   0.4895355), wk =   0.0036413
        k(  463) = (  -0.4351426   0.0000000   0.4351426), wk =   0.0036413
        k(  464) = (   0.1261914   0.4351426  -0.0000000), wk =   0.0018207
        k(  465) = (   0.1827599   0.4895355  -0.0543928), wk =   0.0036413
        k(  466) = (  -0.4960626  -0.1631785   0.5983211), wk =   0.0036413
        k(  467) = (  -0.4394941  -0.1087857   0.5439283), wk =   0.0036413
        k(  468) = (  -0.3829255  -0.0543928   0.4895355), wk =   0.0036413
        k(  469) = (  -0.3263570   0.0000000   0.4351426), wk =   0.0036413
        k(  470) = (   0.2349770   0.4351426  -0.0000000), wk =   0.0018207
        k(  471) = (  -0.4438455  -0.2175713   0.6527140), wk =   0.0036413
        k(  472) = (  -0.3872769  -0.1631785   0.5983211), wk =   0.0036413
        k(  473) = (  -0.3307084  -0.1087857   0.5439283), wk =   0.0036413
        k(  474) = (  -0.2741399  -0.0543928   0.4895355), wk =   0.0036413
        k(  475) = (  -0.2175713   0.0000000   0.4351426), wk =   0.0036413
        k(  476) = (  -0.3916284  -0.2719641   0.7071068), wk =   0.0018207
        k(  477) = (  -0.3350598  -0.2175713   0.6527140), wk =   0.0036413
        k(  478) = (  -0.2784913  -0.1631785   0.5983211), wk =   0.0036413
        k(  479) = (  -0.2219227  -0.1087857   0.5439283), wk =   0.0036413
        k(  480) = (  -0.1653542  -0.0543928   0.4895355), wk =   0.0036413
        k(  481) = (  -0.1087857   0.0000000   0.4351426), wk =   0.0036413
        k(  482) = (   0.0000000   0.0000000   0.4351426), wk =   0.0018207
        k(  483) = (  -0.2828427  -0.2719641   0.7071068), wk =   0.0018207
        k(  484) = (  -0.2262742  -0.2175713   0.6527140), wk =   0.0036413
        k(  485) = (  -0.1697056  -0.1631785   0.5983211), wk =   0.0036413
        k(  486) = (  -0.1131371  -0.1087857   0.5439283), wk =   0.0036413
        k(  487) = (  -0.0565685  -0.0543928   0.4895355), wk =   0.0036413
        k(  488) = (   0.0522171  -0.0543928   0.4895355), wk =   0.0036413
        k(  489) = (  -0.1740571  -0.2719641   0.7071068), wk =   0.0018207
        k(  490) = (  -0.1174885  -0.2175713   0.6527140), wk =   0.0036413
        k(  491) = (  -0.0609200  -0.1631785   0.5983211), wk =   0.0036413
        k(  492) = (  -0.0043514  -0.1087857   0.5439283), wk =   0.0036413
        k(  493) = (   0.1044342  -0.1087857   0.5439283), wk =   0.0036413
        k(  494) = (   0.1610028  -0.0543928   0.4895355), wk =   0.0036413
        k(  495) = (  -0.0652714  -0.2719641   0.7071068), wk =   0.0018207
        k(  496) = (  -0.0087029  -0.2175713   0.6527140), wk =   0.0036413
        k(  497) = (   0.0478657  -0.1631785   0.5983211), wk =   0.0036413
        k(  498) = (  -0.5221712   0.5439283  -0.1087857), wk =   0.0036413
        k(  499) = (  -0.4656026   0.5983211  -0.1631785), wk =   0.0036413
        k(  500) = (  -0.4090341   0.6527140  -0.2175713), wk =   0.0036413
        k(  501) = (  -0.6353082   0.4351426  -0.0000000), wk =   0.0018207
        k(  502) = (  -0.5787397   0.4895355  -0.0543928), wk =   0.0036413
        k(  503) = (  -0.4699540   0.4895355  -0.0543928), wk =   0.0036413
        k(  504) = (  -0.4133855   0.5439283  -0.1087857), wk =   0.0036413
        k(  505) = (  -0.3568170   0.5983211  -0.1631785), wk =   0.0036413
        k(  506) = (  -0.3002484   0.6527140  -0.2175713), wk =   0.0036413
        k(  507) = (  -0.5265226   0.4351426  -0.0000000), wk =   0.0018207
        k(  508) = (  -0.4177369   0.4351426  -0.0000000), wk =   0.0018207
        k(  509) = (  -0.3611684   0.4895355  -0.0543928), wk =   0.0036413
        k(  510) = (  -0.3045998   0.5439283  -0.1087857), wk =   0.0036413
        k(  511) = (  -0.2480313   0.5983211  -0.1631785), wk =   0.0036413
        k(  512) = (  -0.1914628   0.6527140  -0.2175713), wk =   0.0036413
        k(  513) = (  -0.1348942   0.7071068  -0.2719641), wk =   0.0036413
        k(  514) = (  -0.3089513   0.4351426  -0.0000000), wk =   0.0018207
        k(  515) = (  -0.2523827   0.4895355  -0.0543928), wk =   0.0036413
        k(  516) = (  -0.1958142   0.5439283  -0.1087857), wk =   0.0036413
        k(  517) = (  -0.1392456   0.5983211  -0.1631785), wk =   0.0036413
        k(  518) = (  -0.0826771   0.6527140  -0.2175713), wk =   0.0036413
        k(  519) = (  -0.0261086   0.7071068  -0.2719641), wk =   0.0036413
        k(  520) = (  -0.2001656   0.4351426  -0.0000000), wk =   0.0018207
        k(  521) = (  -0.1435971   0.4895355  -0.0543928), wk =   0.0036413
        k(  522) = (  -0.0870285   0.5439283  -0.1087857), wk =   0.0036413
        k(  523) = (  -0.0304600   0.5983211  -0.1631785), wk =   0.0036413
        k(  524) = (   0.0261086   0.6527140  -0.2175713), wk =   0.0036413
        k(  525) = (  -0.0913800   0.4351426  -0.0000000), wk =   0.0018207
        k(  526) = (  -0.0348114   0.4895355  -0.0543928), wk =   0.0036413
        k(  527) = (   0.0217571   0.5439283  -0.1087857), wk =   0.0036413
        k(  528) = (   0.0783257   0.5983211  -0.1631785), wk =   0.0036413
        k(  529) = (  -0.6004968  -0.0543928   0.4895355), wk =   0.0036413
        k(  530) = (   0.0217571   0.5439283  -0.0000000), wk =   0.0018207
        k(  531) = (   0.0783257   0.5983211  -0.0543928), wk =   0.0036413
        k(  532) = (  -0.6004968  -0.0543928   0.5983211), wk =   0.0036413
        k(  533) = (  -0.5439283   0.0000000   0.5439283), wk =   0.0036413
        k(  534) = (   0.1305428   0.5439283  -0.0000000), wk =   0.0018207
        k(  535) = (  -0.5482797  -0.1087857   0.6527140), wk =   0.0036413
        k(  536) = (  -0.4917112  -0.0543928   0.5983211), wk =   0.0036413
        k(  537) = (  -0.4351426   0.0000000   0.5439283), wk =   0.0036413
        k(  538) = (  -0.4960626  -0.1631785   0.7071068), wk =   0.0018207
        k(  539) = (  -0.4394941  -0.1087857   0.6527140), wk =   0.0036413
        k(  540) = (  -0.3829255  -0.0543928   0.5983211), wk =   0.0036413
        k(  541) = (  -0.3263570   0.0000000   0.5439283), wk =   0.0036413
        k(  542) = (  -0.3872769  -0.1631785   0.7071068), wk =   0.0018207
        k(  543) = (  -0.3307084  -0.1087857   0.6527140), wk =   0.0036413
        k(  544) = (  -0.2741399  -0.0543928   0.5983211), wk =   0.0036413
        k(  545) = (  -0.2175713  -0.0000000   0.5439283), wk =   0.0036413
        k(  546) = (  -0.2784913  -0.1631785   0.7071068), wk =   0.0018207
        k(  547) = (  -0.2219227  -0.1087857   0.6527140), wk =   0.0036413
        k(  548) = (  -0.1653542  -0.0543928   0.5983211), wk =   0.0036413
        k(  549) = (  -0.1087857   0.0000000   0.5439283), wk =   0.0036413
        k(  550) = (   0.0000000   0.0000000   0.5439283), wk =   0.0018207
        k(  551) = (  -0.1697056  -0.1631785   0.7071068), wk =   0.0018207
        k(  552) = (  -0.1131371  -0.1087857   0.6527140), wk =   0.0036413
        k(  553) = (  -0.0565685  -0.0543928   0.5983211), wk =   0.0036413
        k(  554) = (   0.0522171  -0.0543928   0.5983211), wk =   0.0036413
        k(  555) = (  -0.0609200  -0.1631785   0.7071068), wk =   0.0018207
        k(  556) = (  -0.0043514  -0.1087857   0.6527140), wk =   0.0036413
        k(  557) = (  -0.5743883   0.5983211  -0.0543928), wk =   0.0036413
        k(  558) = (  -0.5178197   0.6527140  -0.1087857), wk =   0.0036413
        k(  559) = (  -0.6309568   0.5439283  -0.0000000), wk =   0.0018207
        k(  560) = (  -0.5221712   0.5439283  -0.0000000), wk =   0.0018207
        k(  561) = (  -0.4656026   0.5983211  -0.0543928), wk =   0.0036413
        k(  562) = (  -0.4090341   0.6527140  -0.1087857), wk =   0.0036413
        k(  563) = (  -0.4133855   0.5439283  -0.0000000), wk =   0.0018207
        k(  564) = (  -0.3568170   0.5983211  -0.0543928), wk =   0.0036413
        k(  565) = (  -0.3002484   0.6527140  -0.1087857), wk =   0.0036413
        k(  566) = (  -0.3045998   0.5439283  -0.0000000), wk =   0.0018207
        k(  567) = (  -0.2480313   0.5983211  -0.0543928), wk =   0.0036413
        k(  568) = (  -0.1914628   0.6527140  -0.1087857), wk =   0.0036413
        k(  569) = (  -0.1958142   0.5439283  -0.0000000), wk =   0.0018207
        k(  570) = (  -0.1392456   0.5983211  -0.0543928), wk =   0.0036413
        k(  571) = (  -0.0826771   0.6527140  -0.1087857), wk =   0.0036413
        k(  572) = (  -0.0261086   0.7071068  -0.1631785), wk =   0.0036413
        k(  573) = (  -0.0870285   0.5439283  -0.0000000), wk =   0.0018207
        k(  574) = (  -0.0304600   0.5983211  -0.0543928), wk =   0.0036413
        k(  575) = (   0.0261086   0.6527140  -0.1087857), wk =   0.0036413
        k(  576) = (   0.0261086   0.6527140  -0.0000000), wk =   0.0018207
        k(  577) = (  -0.6527140   0.0000000   0.6527140), wk =   0.0036413
        k(  578) = (  -0.6004968  -0.0543928   0.7071068), wk =   0.0018207
        k(  579) = (  -0.5439283   0.0000000   0.6527140), wk =   0.0036413
        k(  580) = (  -0.4917112  -0.0543928   0.7071068), wk =   0.0018207
        k(  581) = (  -0.4351426   0.0000000   0.6527140), wk =   0.0036413
        k(  582) = (  -0.3829255  -0.0543928   0.7071068), wk =   0.0018207
        k(  583) = (  -0.3263570   0.0000000   0.6527140), wk =   0.0036413
        k(  584) = (  -0.2741399  -0.0543928   0.7071068), wk =   0.0018207
        k(  585) = (  -0.2175713   0.0000000   0.6527140), wk =   0.0036413
        k(  586) = (  -0.1653542  -0.0543928   0.7071068), wk =   0.0018207
        k(  587) = (  -0.1087857   0.0000000   0.6527140), wk =   0.0036413
        k(  588) = (   0.0000000   0.0000000   0.6527140), wk =   0.0018207
        k(  589) = (  -0.0565685  -0.0543928   0.7071068), wk =   0.0018207
        k(  590) = (  -0.6266054   0.6527140  -0.0000000), wk =   0.0018207
        k(  591) = (  -0.5178197   0.6527140  -0.0000000), wk =   0.0018207
        k(  592) = (  -0.4090341   0.6527140  -0.0000000), wk =   0.0018207
        k(  593) = (  -0.3002484   0.6527140  -0.0000000), wk =   0.0018207
        k(  594) = (  -0.1914628   0.6527140  -0.0000000), wk =   0.0018207
        k(  595) = (  -0.0826771   0.6527140  -0.0000000), wk =   0.0018207

                       cryst. coord.
        k(    1) = (   0.0000000   0.0000000   0.0000000), wk =   0.0009103
        k(    2) = (   0.0000000  -0.0000000   0.0769231), wk =   0.0036413
        k(    3) = (   0.0000000  -0.0000000   0.1538462), wk =   0.0036413
        k(    4) = (   0.0000000  -0.0000000   0.2307692), wk =   0.0036413
        k(    5) = (   0.0000000  -0.0000000   0.3076923), wk =   0.0036413
        k(    6) = (   0.0000000  -0.0000000   0.3846154), wk =   0.0036413
        k(    7) = (   0.0000000  -0.0000000   0.4615385), wk =   0.0036413
        k(    8) = (   0.0000000   0.0769231  -0.0000000), wk =   0.0036413
        k(    9) = (   0.0000000   0.0769231   0.0769231), wk =   0.0018207
        k(   10) = (   0.0000000   0.0769231   0.1538462), wk =   0.0036413
        k(   11) = (   0.0000000   0.0769231   0.2307692), wk =   0.0036413
        k(   12) = (   0.0000000   0.0769231   0.3076923), wk =   0.0036413
        k(   13) = (   0.0000000   0.0769231   0.3846154), wk =   0.0036413
        k(   14) = (   0.0000000   0.0769231   0.4615385), wk =   0.0036413
        k(   15) = (   0.0000000   0.0769231  -0.4615385), wk =   0.0036413
        k(   16) = (   0.0000000   0.0769231  -0.3846154), wk =   0.0036413
        k(   17) = (   0.0000000   0.0769231  -0.3076923), wk =   0.0036413
        k(   18) = (   0.0000000   0.0769231  -0.2307692), wk =   0.0036413
        k(   19) = (   0.0000000   0.0769231  -0.1538462), wk =   0.0036413
        k(   20) = (   0.0000000   0.0769231  -0.0769231), wk =   0.0036413
        k(   21) = (   0.0000000   0.1538462  -0.0000000), wk =   0.0036413
        k(   22) = (   0.0000000   0.1538462   0.0769231), wk =   0.0036413
        k(   23) = (   0.0000000   0.1538462   0.1538462), wk =   0.0018207
        k(   24) = (   0.0000000   0.1538462   0.2307692), wk =   0.0036413
        k(   25) = (   0.0000000   0.1538462   0.3076923), wk =   0.0036413
        k(   26) = (   0.0000000   0.1538462   0.3846154), wk =   0.0036413
        k(   27) = (   0.0000000   0.1538462   0.4615385), wk =   0.0036413
        k(   28) = (   0.0000000   0.1538462  -0.4615385), wk =   0.0036413
        k(   29) = (   0.0000000   0.1538462  -0.3846154), wk =   0.0036413
        k(   30) = (   0.0000000   0.1538462  -0.3076923), wk =   0.0036413
        k(   31) = (   0.0000000   0.1538462  -0.2307692), wk =   0.0036413
        k(   32) = (   0.0000000   0.1538462  -0.1538462), wk =   0.0036413
        k(   33) = (   0.0000000   0.1538462  -0.0769231), wk =   0.0036413
        k(   34) = (   0.0000000   0.2307692  -0.0000000), wk =   0.0036413
        k(   35) = (   0.0000000   0.2307692   0.0769231), wk =   0.0036413
        k(   36) = (   0.0000000   0.2307692   0.1538462), wk =   0.0036413
        k(   37) = (   0.0000000   0.2307692   0.2307692), wk =   0.0018207
        k(   38) = (   0.0000000   0.2307692   0.3076923), wk =   0.0036413
        k(   39) = (   0.0000000   0.2307692   0.3846154), wk =   0.0036413
        k(   40) = (   0.0000000   0.2307692   0.4615385), wk =   0.0036413
        k(   41) = (   0.0000000   0.2307692  -0.4615385), wk =   0.0036413
        k(   42) = (   0.0000000   0.2307692  -0.3846154), wk =   0.0036413
        k(   43) = (   0.0000000   0.2307692  -0.3076923), wk =   0.0036413
        k(   44) = (   0.0000000   0.2307692  -0.2307692), wk =   0.0036413
        k(   45) = (   0.0000000   0.2307692  -0.1538462), wk =   0.0036413
        k(   46) = (   0.0000000   0.2307692  -0.0769231), wk =   0.0036413
        k(   47) = (   0.0000000   0.3076923  -0.0000000), wk =   0.0036413
        k(   48) = (   0.0000000   0.3076923   0.0769231), wk =   0.0036413
        k(   49) = (   0.0000000   0.3076923   0.1538462), wk =   0.0036413
        k(   50) = (   0.0000000   0.3076923   0.2307692), wk =   0.0036413
        k(   51) = (   0.0000000   0.3076923   0.3076923), wk =   0.0018207
        k(   52) = (   0.0000000   0.3076923   0.3846154), wk =   0.0036413
        k(   53) = (   0.0000000   0.3076923   0.4615385), wk =   0.0036413
        k(   54) = (   0.0000000   0.3076923  -0.4615385), wk =   0.0036413
        k(   55) = (   0.0000000   0.3076923  -0.3846154), wk =   0.0036413
        k(   56) = (   0.0000000   0.3076923  -0.3076923), wk =   0.0036413
        k(   57) = (   0.0000000   0.3076923  -0.2307692), wk =   0.0036413
        k(   58) = (   0.0000000   0.3076923  -0.1538462), wk =   0.0036413
        k(   59) = (   0.0000000   0.3076923  -0.0769231), wk =   0.0036413
        k(   60) = (   0.0000000   0.3846154  -0.0000000), wk =   0.0036413
        k(   61) = (   0.0000000   0.3846154   0.0769231), wk =   0.0036413
        k(   62) = (   0.0000000   0.3846154   0.1538462), wk =   0.0036413
        k(   63) = (   0.0000000   0.3846154   0.2307692), wk =   0.0036413
        k(   64) = (   0.0000000   0.3846154   0.3076923), wk =   0.0036413
        k(   65) = (   0.0000000   0.3846154   0.3846154), wk =   0.0018207
        k(   66) = (   0.0000000   0.3846154   0.4615385), wk =   0.0036413
        k(   67) = (   0.0000000   0.3846154  -0.4615385), wk =   0.0036413
        k(   68) = (   0.0000000   0.3846154  -0.3846154), wk =   0.0036413
        k(   69) = (   0.0000000   0.3846154  -0.3076923), wk =   0.0036413
        k(   70) = (   0.0000000   0.3846154  -0.2307692), wk =   0.0036413
        k(   71) = (   0.0000000   0.3846154  -0.1538462), wk =   0.0036413
        k(   72) = (   0.0000000   0.3846154  -0.0769231), wk =   0.0036413
        k(   73) = (   0.0000000   0.4615385  -0.0000000), wk =   0.0036413
        k(   74) = (   0.0000000   0.4615385   0.0769231), wk =   0.0036413
        k(   75) = (   0.0000000   0.4615385   0.1538462), wk =   0.0036413
        k(   76) = (   0.0000000   0.4615385   0.2307692), wk =   0.0036413
        k(   77) = (   0.0000000   0.4615385   0.3076923), wk =   0.0036413
        k(   78) = (   0.0000000   0.4615385   0.3846154), wk =   0.0036413
        k(   79) = (   0.0000000   0.4615385   0.4615385), wk =   0.0018207
        k(   80) = (   0.0000000   0.4615385  -0.4615385), wk =   0.0036413
        k(   81) = (   0.0000000   0.4615385  -0.3846154), wk =   0.0036413
        k(   82) = (   0.0000000   0.4615385  -0.3076923), wk =   0.0036413
        k(   83) = (   0.0000000   0.4615385  -0.2307692), wk =   0.0036413
        k(   84) = (   0.0000000   0.4615385  -0.1538462), wk =   0.0036413
        k(   85) = (   0.0000000   0.4615385  -0.0769231), wk =   0.0036413
        k(   86) = (   0.0769231  -0.0000000   0.0769231), wk =   0.0018207
        k(   87) = (   0.0769231  -0.0000000   0.1538462), wk =   0.0036413
        k(   88) = (   0.0769231  -0.0000000   0.2307692), wk =   0.0036413
        k(   89) = (   0.0769231  -0.0000000   0.3076923), wk =   0.0036413
        k(   90) = (   0.0769231  -0.0000000   0.3846154), wk =   0.0036413
        k(   91) = (   0.0769231  -0.0000000   0.4615385), wk =   0.0036413
        k(   92) = (   0.0769231   0.0000000  -0.4615385), wk =   0.0036413
        k(   93) = (   0.0769231   0.0000000  -0.3846154), wk =   0.0036413
        k(   94) = (   0.0769231   0.0000000  -0.3076923), wk =   0.0036413
        k(   95) = (   0.0769231   0.0000000  -0.2307692), wk =   0.0036413
        k(   96) = (   0.0769231   0.0000000  -0.1538462), wk =   0.0036413
        k(   97) = (   0.0769231   0.0000000  -0.0769231), wk =   0.0036413
        k(   98) = (   0.0769231   0.0769231   0.0000000), wk =   0.0018207
        k(   99) = (   0.0769231   0.0769231   0.1538462), wk =   0.0018207
        k(  100) = (   0.0769231   0.0769231   0.2307692), wk =   0.0036413
        k(  101) = (   0.0769231   0.0769231   0.3076923), wk =   0.0036413
        k(  102) = (   0.0769231   0.0769231   0.3846154), wk =   0.0036413
        k(  103) = (   0.0769231   0.0769231   0.4615385), wk =   0.0036413
        k(  104) = (   0.0769231   0.0769231  -0.4615385), wk =   0.0036413
        k(  105) = (   0.0769231   0.0769231  -0.3846154), wk =   0.0036413
        k(  106) = (   0.0769231   0.0769231  -0.3076923), wk =   0.0036413
        k(  107) = (   0.0769231   0.0769231  -0.2307692), wk =   0.0036413
        k(  108) = (   0.0769231   0.0769231  -0.1538462), wk =   0.0036413
        k(  109) = (   0.0769231   0.0769231  -0.0769231), wk =   0.0036413
        k(  110) = (   0.0769231   0.1538462  -0.0000000), wk =   0.0036413
        k(  111) = (   0.0769231   0.1538462   0.2307692), wk =   0.0018207
        k(  112) = (   0.0769231   0.1538462   0.3076923), wk =   0.0036413
        k(  113) = (   0.0769231   0.1538462   0.3846154), wk =   0.0036413
        k(  114) = (   0.0769231   0.1538462   0.4615385), wk =   0.0036413
        k(  115) = (   0.0769231   0.1538462  -0.4615385), wk =   0.0036413
        k(  116) = (   0.0769231   0.1538462  -0.3846154), wk =   0.0036413
        k(  117) = (   0.0769231   0.1538462  -0.3076923), wk =   0.0036413
        k(  118) = (   0.0769231   0.1538462  -0.2307692), wk =   0.0036413
        k(  119) = (   0.0769231   0.1538462  -0.1538462), wk =   0.0036413
        k(  120) = (   0.0769231   0.1538462  -0.0769231), wk =   0.0036413
        k(  121) = (   0.0769231   0.2307692  -0.0000000), wk =   0.0036413
        k(  122) = (   0.0769231   0.2307692   0.0769231), wk =   0.0036413
        k(  123) = (   0.0769231   0.2307692   0.1538462), wk =   0.0036413
        k(  124) = (   0.0769231   0.2307692   0.3076923), wk =   0.0018207
        k(  125) = (   0.0769231   0.2307692   0.3846154), wk =   0.0036413
        k(  126) = (   0.0769231   0.2307692   0.4615385), wk =   0.0036413
        k(  127) = (   0.0769231   0.2307692  -0.4615385), wk =   0.0036413
        k(  128) = (   0.0769231   0.2307692  -0.3846154), wk =   0.0036413
        k(  129) = (   0.0769231   0.2307692  -0.3076923), wk =   0.0036413
        k(  130) = (   0.0769231   0.2307692  -0.2307692), wk =   0.0036413
        k(  131) = (   0.0769231   0.2307692  -0.1538462), wk =   0.0036413
        k(  132) = (   0.0769231   0.2307692  -0.0769231), wk =   0.0036413
        k(  133) = (   0.0769231   0.3076923  -0.0000000), wk =   0.0036413
        k(  134) = (   0.0769231   0.3076923   0.0769231), wk =   0.0036413
        k(  135) = (   0.0769231   0.3076923   0.1538462), wk =   0.0036413
        k(  136) = (   0.0769231   0.3076923   0.2307692), wk =   0.0036413
        k(  137) = (   0.0769231   0.3076923   0.3846154), wk =   0.0018207
        k(  138) = (   0.0769231   0.3076923   0.4615385), wk =   0.0036413
        k(  139) = (   0.0769231   0.3076923  -0.4615385), wk =   0.0036413
        k(  140) = (   0.0769231   0.3076923  -0.3846154), wk =   0.0036413
        k(  141) = (   0.0769231   0.3076923  -0.3076923), wk =   0.0036413
        k(  142) = (   0.0769231   0.3076923  -0.2307692), wk =   0.0036413
        k(  143) = (   0.0769231   0.3076923  -0.1538462), wk =   0.0036413
        k(  144) = (   0.0769231   0.3076923  -0.0769231), wk =   0.0036413
        k(  145) = (   0.0769231   0.3846154  -0.0000000), wk =   0.0036413
        k(  146) = (   0.0769231   0.3846154   0.0769231), wk =   0.0036413
        k(  147) = (   0.0769231   0.3846154   0.1538462), wk =   0.0036413
        k(  148) = (   0.0769231   0.3846154   0.2307692), wk =   0.0036413
        k(  149) = (   0.0769231   0.3846154   0.3076923), wk =   0.0036413
        k(  150) = (   0.0769231   0.3846154   0.4615385), wk =   0.0018207
        k(  151) = (   0.0769231   0.3846154  -0.4615385), wk =   0.0036413
        k(  152) = (   0.0769231   0.3846154  -0.3846154), wk =   0.0036413
        k(  153) = (   0.0769231   0.3846154  -0.3076923), wk =   0.0036413
        k(  154) = (   0.0769231   0.3846154  -0.2307692), wk =   0.0036413
        k(  155) = (   0.0769231   0.3846154  -0.1538462), wk =   0.0036413
        k(  156) = (   0.0769231   0.3846154  -0.0769231), wk =   0.0036413
        k(  157) = (   0.0769231   0.4615385  -0.0000000), wk =   0.0036413
        k(  158) = (   0.0769231   0.4615385   0.0769231), wk =   0.0036413
        k(  159) = (   0.0769231   0.4615385   0.1538462), wk =   0.0036413
        k(  160) = (   0.0769231   0.4615385   0.2307692), wk =   0.0036413
        k(  161) = (   0.0769231   0.4615385   0.3076923), wk =   0.0036413
        k(  162) = (   0.0769231   0.4615385   0.3846154), wk =   0.0036413
        k(  163) = (   0.0769231   0.4615385  -0.4615385), wk =   0.0018207
        k(  164) = (   0.0769231   0.4615385  -0.3846154), wk =   0.0036413
        k(  165) = (   0.0769231   0.4615385  -0.3076923), wk =   0.0036413
        k(  166) = (   0.0769231   0.4615385  -0.2307692), wk =   0.0036413
        k(  167) = (   0.0769231   0.4615385  -0.1538462), wk =   0.0036413
        k(  168) = (   0.0769231   0.4615385  -0.0769231), wk =   0.0036413
        k(  169) = (   0.0769231  -0.4615385   0.0000000), wk =   0.0036413
        k(  170) = (   0.0769231  -0.4615385   0.0769231), wk =   0.0036413
        k(  171) = (   0.0769231  -0.4615385   0.1538462), wk =   0.0036413
        k(  172) = (   0.0769231  -0.4615385   0.2307692), wk =   0.0036413
        k(  173) = (   0.0769231  -0.4615385   0.3076923), wk =   0.0036413
        k(  174) = (   0.0769231  -0.4615385   0.3846154), wk =   0.0036413
        k(  175) = (   0.0769231  -0.4615385   0.4615385), wk =   0.0036413
        k(  176) = (   0.0769231  -0.4615385  -0.3846154), wk =   0.0018207
        k(  177) = (   0.0769231  -0.4615385  -0.3076923), wk =   0.0036413
        k(  178) = (   0.0769231  -0.4615385  -0.2307692), wk =   0.0036413
        k(  179) = (   0.0769231  -0.4615385  -0.1538462), wk =   0.0036413
        k(  180) = (   0.0769231  -0.4615385  -0.0769231), wk =   0.0036413
        k(  181) = (   0.0769231  -0.3846154   0.0000000), wk =   0.0036413
        k(  182) = (   0.0769231  -0.3846154   0.0769231), wk =   0.0036413
        k(  183) = (   0.0769231  -0.3846154   0.1538462), wk =   0.0036413
        k(  184) = (   0.0769231  -0.3846154   0.2307692), wk =   0.0036413
        k(  185) = (   0.0769231  -0.3846154   0.3076923), wk =   0.0036413
        k(  186) = (   0.0769231  -0.3846154   0.3846154), wk =   0.0036413
        k(  187) = (   0.0769231  -0.3846154   0.4615385), wk =   0.0036413
        k(  188) = (   0.0769231  -0.3846154  -0.3076923), wk =   0.0018207
        k(  189) = (   0.0769231  -0.3846154  -0.2307692), wk =   0.0036413
        k(  190) = (   0.0769231  -0.3846154  -0.1538462), wk =   0.0036413
        k(  191) = (   0.0769231  -0.3846154  -0.0769231), wk =   0.0036413
        k(  192) = (   0.0769231  -0.3076923   0.0000000), wk =   0.0036413
        k(  193) = (   0.0769231  -0.3076923   0.0769231), wk =   0.0036413
        k(  194) = (   0.0769231  -0.3076923   0.1538462), wk =   0.0036413
        k(  195) = (   0.0769231  -0.3076923   0.2307692), wk =   0.0036413
        k(  196) = (   0.0769231  -0.3076923   0.3076923), wk =   0.0036413
        k(  197) = (   0.0769231  -0.3076923   0.3846154), wk =   0.0036413
        k(  198) = (   0.0769231  -0.3076923   0.4615385), wk =   0.0036413
        k(  199) = (   0.0769231  -0.3076923  -0.4615385), wk =   0.0036413
        k(  200) = (   0.0769231  -0.3076923  -0.2307692), wk =   0.0018207
        k(  201) = (   0.0769231  -0.3076923  -0.1538462), wk =   0.0036413
        k(  202) = (   0.0769231  -0.3076923  -0.0769231), wk =   0.0036413
        k(  203) = (   0.0769231  -0.2307692   0.0000000), wk =   0.0036413
        k(  204) = (   0.0769231  -0.2307692   0.0769231), wk =   0.0036413
        k(  205) = (   0.0769231  -0.2307692   0.1538462), wk =   0.0036413
        k(  206) = (   0.0769231  -0.2307692   0.2307692), wk =   0.0036413
        k(  207) = (   0.0769231  -0.2307692   0.3076923), wk =   0.0036413
        k(  208) = (   0.0769231  -0.2307692   0.3846154), wk =   0.0036413
        k(  209) = (   0.0769231  -0.2307692   0.4615385), wk =   0.0036413
        k(  210) = (   0.0769231  -0.2307692  -0.4615385), wk =   0.0036413
        k(  211) = (   0.0769231  -0.2307692  -0.3846154), wk =   0.0036413
        k(  212) = (   0.0769231  -0.2307692  -0.1538462), wk =   0.0018207
        k(  213) = (   0.0769231  -0.2307692  -0.0769231), wk =   0.0036413
        k(  214) = (   0.0769231  -0.1538462   0.0000000), wk =   0.0036413
        k(  215) = (   0.0769231  -0.1538462   0.0769231), wk =   0.0036413
        k(  216) = (   0.0769231  -0.1538462   0.1538462), wk =   0.0036413
        k(  217) = (   0.0769231  -0.1538462   0.2307692), wk =   0.0036413
        k(  218) = (   0.0769231  -0.1538462   0.3076923), wk =   0.0036413
        k(  219) = (   0.0769231  -0.1538462   0.3846154), wk =   0.0036413
        k(  220) = (   0.0769231  -0.1538462   0.4615385), wk =   0.0036413
        k(  221) = (   0.0769231  -0.1538462  -0.4615385), wk =   0.0036413
        k(  222) = (   0.0769231  -0.1538462  -0.3846154), wk =   0.0036413
        k(  223) = (   0.0769231  -0.1538462  -0.3076923), wk =   0.0036413
        k(  224) = (   0.0769231  -0.1538462  -0.0769231), wk =   0.0018207
        k(  225) = (   0.0769231  -0.0769231   0.0000000), wk =   0.0018207
        k(  226) = (   0.0769231  -0.0769231   0.0769231), wk =   0.0036413
        k(  227) = (   0.0769231  -0.0769231   0.1538462), wk =   0.0036413
        k(  228) = (   0.0769231  -0.0769231   0.2307692), wk =   0.0036413
        k(  229) = (   0.0769231  -0.0769231   0.3076923), wk =   0.0036413
        k(  230) = (   0.0769231  -0.0769231   0.3846154), wk =   0.0036413
        k(  231) = (   0.0769231  -0.0769231   0.4615385), wk =   0.0036413
        k(  232) = (   0.0769231  -0.0769231  -0.4615385), wk =   0.0036413
        k(  233) = (   0.0769231  -0.0769231  -0.3846154), wk =   0.0036413
        k(  234) = (   0.0769231  -0.0769231  -0.3076923), wk =   0.0036413
        k(  235) = (   0.0769231  -0.0769231  -0.2307692), wk =   0.0036413
        k(  236) = (   0.1538462  -0.0000000   0.1538462), wk =   0.0018207
        k(  237) = (   0.1538462  -0.0000000   0.2307692), wk =   0.0036413
        k(  238) = (   0.1538462  -0.0000000   0.3076923), wk =   0.0036413
        k(  239) = (   0.1538462  -0.0000000   0.3846154), wk =   0.0036413
        k(  240) = (   0.1538462  -0.0000000   0.4615385), wk =   0.0036413
        k(  241) = (   0.1538462   0.0000000  -0.4615385), wk =   0.0036413
        k(  242) = (   0.1538462   0.0000000  -0.3846154), wk =   0.0036413
        k(  243) = (   0.1538462   0.0000000  -0.3076923), wk =   0.0036413
        k(  244) = (   0.1538462  -0.0000000  -0.2307692), wk =   0.0036413
        k(  245) = (   0.1538462   0.0000000  -0.1538462), wk =   0.0036413
        k(  246) = (   0.1538462   0.0769231   0.2307692), wk =   0.0018207
        k(  247) = (   0.1538462   0.0769231   0.3076923), wk =   0.0036413
        k(  248) = (   0.1538462   0.0769231   0.3846154), wk =   0.0036413
        k(  249) = (   0.1538462   0.0769231   0.4615385), wk =   0.0036413
        k(  250) = (   0.1538462   0.0769231  -0.4615385), wk =   0.0036413
        k(  251) = (   0.1538462   0.0769231  -0.3846154), wk =   0.0036413
        k(  252) = (   0.1538462   0.0769231  -0.3076923), wk =   0.0036413
        k(  253) = (   0.1538462   0.0769231  -0.2307692), wk =   0.0036413
        k(  254) = (   0.1538462   0.0769231  -0.1538462), wk =   0.0036413
        k(  255) = (   0.1538462   0.0769231  -0.0769231), wk =   0.0036413
        k(  256) = (   0.1538462   0.1538462   0.0000000), wk =   0.0018207
        k(  257) = (   0.1538462   0.1538462   0.3076923), wk =   0.0018207
        k(  258) = (   0.1538462   0.1538462   0.3846154), wk =   0.0036413
        k(  259) = (   0.1538462   0.1538462   0.4615385), wk =   0.0036413
        k(  260) = (   0.1538462   0.1538462  -0.4615385), wk =   0.0036413
        k(  261) = (   0.1538462   0.1538462  -0.3846154), wk =   0.0036413
        k(  262) = (   0.1538462   0.1538462  -0.3076923), wk =   0.0036413
        k(  263) = (   0.1538462   0.1538462  -0.2307692), wk =   0.0036413
        k(  264) = (   0.1538462   0.1538462  -0.1538462), wk =   0.0036413
        k(  265) = (   0.1538462   0.1538462  -0.0769231), wk =   0.0036413
        k(  266) = (   0.1538462   0.2307692  -0.0000000), wk =   0.0036413
        k(  267) = (   0.1538462   0.2307692   0.3846154), wk =   0.0018207
        k(  268) = (   0.1538462   0.2307692   0.4615385), wk =   0.0036413
        k(  269) = (   0.1538462   0.2307692  -0.4615385), wk =   0.0036413
        k(  270) = (   0.1538462   0.2307692  -0.3846154), wk =   0.0036413
        k(  271) = (   0.1538462   0.2307692  -0.3076923), wk =   0.0036413
        k(  272) = (   0.1538462   0.2307692  -0.2307692), wk =   0.0036413
        k(  273) = (   0.1538462   0.2307692  -0.1538462), wk =   0.0036413
        k(  274) = (   0.1538462   0.2307692  -0.0769231), wk =   0.0036413
        k(  275) = (   0.1538462   0.3076923  -0.0000000), wk =   0.0036413
        k(  276) = (   0.1538462   0.3076923   0.0769231), wk =   0.0036413
        k(  277) = (   0.1538462   0.3076923   0.4615385), wk =   0.0018207
        k(  278) = (   0.1538462   0.3076923  -0.4615385), wk =   0.0036413
        k(  279) = (   0.1538462   0.3076923  -0.3846154), wk =   0.0036413
        k(  280) = (   0.1538462   0.3076923  -0.3076923), wk =   0.0036413
        k(  281) = (   0.1538462   0.3076923  -0.2307692), wk =   0.0036413
        k(  282) = (   0.1538462   0.3076923  -0.1538462), wk =   0.0036413
        k(  283) = (   0.1538462   0.3076923  -0.0769231), wk =   0.0036413
        k(  284) = (   0.1538462   0.3846154  -0.0000000), wk =   0.0036413
        k(  285) = (   0.1538462   0.3846154   0.0769231), wk =   0.0036413
        k(  286) = (   0.1538462   0.3846154   0.1538462), wk =   0.0036413
        k(  287) = (   0.1538462   0.3846154   0.2307692), wk =   0.0036413
        k(  288) = (   0.1538462   0.3846154  -0.4615385), wk =   0.0018207
        k(  289) = (   0.1538462   0.3846154  -0.3846154), wk =   0.0036413
        k(  290) = (   0.1538462   0.3846154  -0.3076923), wk =   0.0036413
        k(  291) = (   0.1538462   0.3846154  -0.2307692), wk =   0.0036413
        k(  292) = (   0.1538462   0.3846154  -0.1538462), wk =   0.0036413
        k(  293) = (   0.1538462   0.3846154  -0.0769231), wk =   0.0036413
        k(  294) = (   0.1538462   0.4615385  -0.0000000), wk =   0.0036413
        k(  295) = (   0.1538462   0.4615385   0.0769231), wk =   0.0036413
        k(  296) = (   0.1538462   0.4615385   0.1538462), wk =   0.0036413
        k(  297) = (   0.1538462   0.4615385   0.2307692), wk =   0.0036413
        k(  298) = (   0.1538462   0.4615385   0.3076923), wk =   0.0036413
        k(  299) = (   0.1538462   0.4615385  -0.3846154), wk =   0.0018207
        k(  300) = (   0.1538462   0.4615385  -0.3076923), wk =   0.0036413
        k(  301) = (   0.1538462   0.4615385  -0.2307692), wk =   0.0036413
        k(  302) = (   0.1538462   0.4615385  -0.1538462), wk =   0.0036413
        k(  303) = (   0.1538462   0.4615385  -0.0769231), wk =   0.0036413
        k(  304) = (   0.1538462  -0.4615385   0.0000000), wk =   0.0036413
        k(  305) = (   0.1538462  -0.4615385   0.0769231), wk =   0.0036413
        k(  306) = (   0.1538462  -0.4615385   0.1538462), wk =   0.0036413
        k(  307) = (   0.1538462  -0.4615385   0.2307692), wk =   0.0036413
        k(  308) = (   0.1538462  -0.4615385   0.3076923), wk =   0.0036413
        k(  309) = (   0.1538462  -0.4615385   0.3846154), wk =   0.0036413
        k(  310) = (   0.1538462  -0.4615385  -0.3076923), wk =   0.0018207
        k(  311) = (   0.1538462  -0.4615385  -0.2307692), wk =   0.0036413
        k(  312) = (   0.1538462  -0.4615385  -0.1538462), wk =   0.0036413
        k(  313) = (   0.1538462  -0.4615385  -0.0769231), wk =   0.0036413
        k(  314) = (   0.1538462  -0.3846154   0.0000000), wk =   0.0036413
        k(  315) = (   0.1538462  -0.3846154   0.0769231), wk =   0.0036413
        k(  316) = (   0.1538462  -0.3846154   0.1538462), wk =   0.0036413
        k(  317) = (   0.1538462  -0.3846154   0.2307692), wk =   0.0036413
        k(  318) = (   0.1538462  -0.3846154   0.3076923), wk =   0.0036413
        k(  319) = (   0.1538462  -0.3846154   0.3846154), wk =   0.0036413
        k(  320) = (   0.1538462  -0.3846154   0.4615385), wk =   0.0036413
        k(  321) = (   0.1538462  -0.3846154  -0.2307692), wk =   0.0018207
        k(  322) = (   0.1538462  -0.3846154  -0.1538462), wk =   0.0036413
        k(  323) = (   0.1538462  -0.3846154  -0.0769231), wk =   0.0036413
        k(  324) = (   0.1538462  -0.3076923   0.0000000), wk =   0.0036413
        k(  325) = (   0.1538462  -0.3076923   0.0769231), wk =   0.0036413
        k(  326) = (   0.1538462  -0.3076923   0.1538462), wk =   0.0036413
        k(  327) = (   0.1538462  -0.3076923   0.2307692), wk =   0.0036413
        k(  328) = (   0.1538462  -0.3076923   0.3076923), wk =   0.0036413
        k(  329) = (   0.1538462  -0.3076923   0.3846154), wk =   0.0036413
        k(  330) = (   0.1538462  -0.3076923   0.4615385), wk =   0.0036413
        k(  331) = (   0.1538462  -0.3076923  -0.1538462), wk =   0.0018207
        k(  332) = (   0.1538462  -0.3076923  -0.0769231), wk =   0.0036413
        k(  333) = (   0.1538462  -0.2307692   0.0000000), wk =   0.0036413
        k(  334) = (   0.1538462  -0.2307692   0.0769231), wk =   0.0036413
        k(  335) = (   0.1538462  -0.2307692   0.1538462), wk =   0.0036413
        k(  336) = (   0.1538462  -0.2307692   0.2307692), wk =   0.0036413
        k(  337) = (   0.1538462  -0.2307692   0.3076923), wk =   0.0036413
        k(  338) = (   0.1538462  -0.2307692   0.3846154), wk =   0.0036413
        k(  339) = (   0.1538462  -0.2307692   0.4615385), wk =   0.0036413
        k(  340) = (   0.1538462  -0.2307692  -0.4615385), wk =   0.0036413
        k(  341) = (   0.1538462  -0.2307692  -0.0769231), wk =   0.0018207
        k(  342) = (   0.1538462  -0.1538462   0.0000000), wk =   0.0018207
        k(  343) = (   0.1538462  -0.1538462   0.0769231), wk =   0.0036413
        k(  344) = (   0.1538462  -0.1538462   0.1538462), wk =   0.0036413
        k(  345) = (   0.1538462  -0.1538462   0.2307692), wk =   0.0036413
        k(  346) = (   0.1538462  -0.1538462   0.3076923), wk =   0.0036413
        k(  347) = (   0.1538462  -0.1538462   0.3846154), wk =   0.0036413
        k(  348) = (   0.1538462  -0.1538462   0.4615385), wk =   0.0036413
        k(  349) = (   0.1538462  -0.1538462  -0.4615385), wk =   0.0036413
        k(  350) = (   0.1538462  -0.1538462  -0.3846154), wk =   0.0036413
        k(  351) = (   0.1538462  -0.0769231   0.0769231), wk =   0.0018207
        k(  352) = (   0.1538462  -0.0769231   0.1538462), wk =   0.0036413
        k(  353) = (   0.1538462  -0.0769231   0.2307692), wk =   0.0036413
        k(  354) = (   0.1538462  -0.0769231   0.3076923), wk =   0.0036413
        k(  355) = (   0.1538462  -0.0769231   0.3846154), wk =   0.0036413
        k(  356) = (   0.1538462  -0.0769231   0.4615385), wk =   0.0036413
        k(  357) = (   0.1538462  -0.0769231  -0.4615385), wk =   0.0036413
        k(  358) = (   0.1538462  -0.0769231  -0.3846154), wk =   0.0036413
        k(  359) = (   0.1538462  -0.0769231  -0.3076923), wk =   0.0036413
        k(  360) = (   0.2307692  -0.0000000   0.2307692), wk =   0.0018207
        k(  361) = (   0.2307692  -0.0000000   0.3076923), wk =   0.0036413
        k(  362) = (   0.2307692  -0.0000000   0.3846154), wk =   0.0036413
        k(  363) = (   0.2307692  -0.0000000   0.4615385), wk =   0.0036413
        k(  364) = (   0.2307692   0.0000000  -0.4615385), wk =   0.0036413
        k(  365) = (   0.2307692   0.0000000  -0.3846154), wk =   0.0036413
        k(  366) = (   0.2307692   0.0000000  -0.3076923), wk =   0.0036413
        k(  367) = (   0.2307692   0.0000000  -0.2307692), wk =   0.0036413
        k(  368) = (   0.2307692   0.0769231   0.3076923), wk =   0.0018207
        k(  369) = (   0.2307692   0.0769231   0.3846154), wk =   0.0036413
        k(  370) = (   0.2307692   0.0769231   0.4615385), wk =   0.0036413
        k(  371) = (   0.2307692   0.0769231  -0.4615385), wk =   0.0036413
        k(  372) = (   0.2307692   0.0769231  -0.3846154), wk =   0.0036413
        k(  373) = (   0.2307692   0.0769231  -0.3076923), wk =   0.0036413
        k(  374) = (   0.2307692   0.0769231  -0.2307692), wk =   0.0036413
        k(  375) = (   0.2307692   0.0769231  -0.1538462), wk =   0.0036413
        k(  376) = (   0.2307692   0.1538462   0.3846154), wk =   0.0018207
        k(  377) = (   0.2307692   0.1538462   0.4615385), wk =   0.0036413
        k(  378) = (   0.2307692   0.1538462  -0.4615385), wk =   0.0036413
        k(  379) = (   0.2307692   0.1538462  -0.3846154), wk =   0.0036413
        k(  380) = (   0.2307692   0.1538462  -0.3076923), wk =   0.0036413
        k(  381) = (   0.2307692   0.1538462  -0.2307692), wk =   0.0036413
        k(  382) = (   0.2307692   0.1538462  -0.1538462), wk =   0.0036413
        k(  383) = (   0.2307692   0.1538462  -0.0769231), wk =   0.0036413
        k(  384) = (   0.2307692   0.2307692   0.0000000), wk =   0.0018207
        k(  385) = (   0.2307692   0.2307692   0.4615385), wk =   0.0018207
        k(  386) = (   0.2307692   0.2307692  -0.4615385), wk =   0.0036413
        k(  387) = (   0.2307692   0.2307692  -0.3846154), wk =   0.0036413
        k(  388) = (   0.2307692   0.2307692  -0.3076923), wk =   0.0036413
        k(  389) = (   0.2307692   0.2307692  -0.2307692), wk =   0.0036413
        k(  390) = (   0.2307692   0.2307692  -0.1538462), wk =   0.0036413
        k(  391) = (   0.2307692   0.2307692  -0.0769231), wk =   0.0036413
        k(  392) = (   0.2307692   0.3076923   0.0000000), wk =   0.0036413
        k(  393) = (   0.2307692   0.3076923  -0.4615385), wk =   0.0018207
        k(  394) = (   0.2307692   0.3076923  -0.3846154), wk =   0.0036413
        k(  395) = (   0.2307692   0.3076923  -0.3076923), wk =   0.0036413
        k(  396) = (   0.2307692   0.3076923  -0.2307692), wk =   0.0036413
        k(  397) = (   0.2307692   0.3076923  -0.1538462), wk =   0.0036413
        k(  398) = (   0.2307692   0.3076923  -0.0769231), wk =   0.0036413
        k(  399) = (   0.2307692   0.3846154   0.0000000), wk =   0.0036413
        k(  400) = (   0.2307692   0.3846154   0.0769231), wk =   0.0036413
        k(  401) = (   0.2307692   0.3846154  -0.3846154), wk =   0.0018207
        k(  402) = (   0.2307692   0.3846154  -0.3076923), wk =   0.0036413
        k(  403) = (   0.2307692   0.3846154  -0.2307692), wk =   0.0036413
        k(  404) = (   0.2307692   0.3846154  -0.1538462), wk =   0.0036413
        k(  405) = (   0.2307692   0.3846154  -0.0769231), wk =   0.0036413
        k(  406) = (   0.2307692   0.4615385  -0.0000000), wk =   0.0036413
        k(  407) = (   0.2307692   0.4615385   0.0769231), wk =   0.0036413
        k(  408) = (   0.2307692   0.4615385   0.1538462), wk =   0.0036413
        k(  409) = (   0.2307692   0.4615385  -0.3076923), wk =   0.0018207
        k(  410) = (   0.2307692   0.4615385  -0.2307692), wk =   0.0036413
        k(  411) = (   0.2307692   0.4615385  -0.1538462), wk =   0.0036413
        k(  412) = (   0.2307692   0.4615385  -0.0769231), wk =   0.0036413
        k(  413) = (   0.2307692  -0.4615385   0.0000000), wk =   0.0036413
        k(  414) = (   0.2307692  -0.4615385   0.0769231), wk =   0.0036413
        k(  415) = (   0.2307692  -0.4615385   0.1538462), wk =   0.0036413
        k(  416) = (   0.2307692  -0.4615385   0.2307692), wk =   0.0036413
        k(  417) = (   0.2307692  -0.4615385   0.3076923), wk =   0.0036413
        k(  418) = (   0.2307692  -0.4615385  -0.2307692), wk =   0.0018207
        k(  419) = (   0.2307692  -0.4615385  -0.1538462), wk =   0.0036413
        k(  420) = (   0.2307692  -0.4615385  -0.0769231), wk =   0.0036413
        k(  421) = (   0.2307692  -0.3846154   0.0000000), wk =   0.0036413
        k(  422) = (   0.2307692  -0.3846154   0.0769231), wk =   0.0036413
        k(  423) = (   0.2307692  -0.3846154   0.1538462), wk =   0.0036413
        k(  424) = (   0.2307692  -0.3846154   0.2307692), wk =   0.0036413
        k(  425) = (   0.2307692  -0.3846154   0.3076923), wk =   0.0036413
        k(  426) = (   0.2307692  -0.3846154   0.3846154), wk =   0.0036413
        k(  427) = (   0.2307692  -0.3846154  -0.1538462), wk =   0.0018207
        k(  428) = (   0.2307692  -0.3846154  -0.0769231), wk =   0.0036413
        k(  429) = (   0.2307692  -0.3076923   0.0000000), wk =   0.0036413
        k(  430) = (   0.2307692  -0.3076923   0.0769231), wk =   0.0036413
        k(  431) = (   0.2307692  -0.3076923   0.1538462), wk =   0.0036413
        k(  432) = (   0.2307692  -0.3076923   0.2307692), wk =   0.0036413
        k(  433) = (   0.2307692  -0.3076923   0.3076923), wk =   0.0036413
        k(  434) = (   0.2307692  -0.3076923   0.3846154), wk =   0.0036413
        k(  435) = (   0.2307692  -0.3076923   0.4615385), wk =   0.0036413
        k(  436) = (   0.2307692  -0.3076923  -0.0769231), wk =   0.0018207
        k(  437) = (   0.2307692  -0.2307692   0.0000000), wk =   0.0018207
        k(  438) = (   0.2307692  -0.2307692   0.0769231), wk =   0.0036413
        k(  439) = (   0.2307692  -0.2307692   0.1538462), wk =   0.0036413
        k(  440) = (   0.2307692  -0.2307692   0.2307692), wk =   0.0036413
        k(  441) = (   0.2307692  -0.2307692   0.3076923), wk =   0.0036413
        k(  442) = (   0.2307692  -0.2307692   0.3846154), wk =   0.0036413
        k(  443) = (   0.2307692  -0.2307692   0.4615385), wk =   0.0036413
        k(  444) = (   0.2307692  -0.1538462   0.0769231), wk =   0.0018207
        k(  445) = (   0.2307692  -0.1538462   0.1538462), wk =   0.0036413
        k(  446) = (   0.2307692  -0.1538462   0.2307692), wk =   0.0036413
        k(  447) = (   0.2307692  -0.1538462   0.3076923), wk =   0.0036413
        k(  448) = (   0.2307692  -0.1538462   0.3846154), wk =   0.0036413
        k(  449) = (   0.2307692  -0.1538462   0.4615385), wk =   0.0036413
        k(  450) = (   0.2307692  -0.1538462  -0.4615385), wk =   0.0036413
        k(  451) = (   0.2307692  -0.0769231   0.1538462), wk =   0.0018207
        k(  452) = (   0.2307692  -0.0769231   0.2307692), wk =   0.0036413
        k(  453) = (   0.2307692  -0.0769231   0.3076923), wk =   0.0036413
        k(  454) = (   0.2307692  -0.0769231   0.3846154), wk =   0.0036413
        k(  455) = (   0.2307692  -0.0769231   0.4615385), wk =   0.0036413
        k(  456) = (   0.2307692  -0.0769231  -0.4615385), wk =   0.0036413
        k(  457) = (   0.2307692  -0.0769231  -0.3846154), wk =   0.0036413
        k(  458) = (   0.3076923  -0.0000000   0.3076923), wk =   0.0018207
        k(  459) = (   0.3076923  -0.0000000   0.3846154), wk =   0.0036413
        k(  460) = (   0.3076923  -0.0000000   0.4615385), wk =   0.0036413
        k(  461) = (   0.3076923   0.0000000  -0.4615385), wk =   0.0036413
        k(  462) = (   0.3076923   0.0000000  -0.3846154), wk =   0.0036413
        k(  463) = (   0.3076923   0.0000000  -0.3076923), wk =   0.0036413
        k(  464) = (   0.3076923   0.0769231   0.3846154), wk =   0.0018207
        k(  465) = (   0.3076923   0.0769231   0.4615385), wk =   0.0036413
        k(  466) = (   0.3076923   0.0769231  -0.4615385), wk =   0.0036413
        k(  467) = (   0.3076923   0.0769231  -0.3846154), wk =   0.0036413
        k(  468) = (   0.3076923   0.0769231  -0.3076923), wk =   0.0036413
        k(  469) = (   0.3076923   0.0769231  -0.2307692), wk =   0.0036413
        k(  470) = (   0.3076923   0.1538462   0.4615385), wk =   0.0018207
        k(  471) = (   0.3076923   0.1538462  -0.4615385), wk =   0.0036413
        k(  472) = (   0.3076923   0.1538462  -0.3846154), wk =   0.0036413
        k(  473) = (   0.3076923   0.1538462  -0.3076923), wk =   0.0036413
        k(  474) = (   0.3076923   0.1538462  -0.2307692), wk =   0.0036413
        k(  475) = (   0.3076923   0.1538462  -0.1538462), wk =   0.0036413
        k(  476) = (   0.3076923   0.2307692  -0.4615385), wk =   0.0018207
        k(  477) = (   0.3076923   0.2307692  -0.3846154), wk =   0.0036413
        k(  478) = (   0.3076923   0.2307692  -0.3076923), wk =   0.0036413
        k(  479) = (   0.3076923   0.2307692  -0.2307692), wk =   0.0036413
        k(  480) = (   0.3076923   0.2307692  -0.1538462), wk =   0.0036413
        k(  481) = (   0.3076923   0.2307692  -0.0769231), wk =   0.0036413
        k(  482) = (   0.3076923   0.3076923   0.0000000), wk =   0.0018207
        k(  483) = (   0.3076923   0.3076923  -0.3846154), wk =   0.0018207
        k(  484) = (   0.3076923   0.3076923  -0.3076923), wk =   0.0036413
        k(  485) = (   0.3076923   0.3076923  -0.2307692), wk =   0.0036413
        k(  486) = (   0.3076923   0.3076923  -0.1538462), wk =   0.0036413
        k(  487) = (   0.3076923   0.3076923  -0.0769231), wk =   0.0036413
        k(  488) = (   0.3076923   0.3846154   0.0000000), wk =   0.0036413
        k(  489) = (   0.3076923   0.3846154  -0.3076923), wk =   0.0018207
        k(  490) = (   0.3076923   0.3846154  -0.2307692), wk =   0.0036413
        k(  491) = (   0.3076923   0.3846154  -0.1538462), wk =   0.0036413
        k(  492) = (   0.3076923   0.3846154  -0.0769231), wk =   0.0036413
        k(  493) = (   0.3076923   0.4615385  -0.0000000), wk =   0.0036413
        k(  494) = (   0.3076923   0.4615385   0.0769231), wk =   0.0036413
        k(  495) = (   0.3076923   0.4615385  -0.2307692), wk =   0.0018207
        k(  496) = (   0.3076923   0.4615385  -0.1538462), wk =   0.0036413
        k(  497) = (   0.3076923   0.4615385  -0.0769231), wk =   0.0036413
        k(  498) = (   0.3076923  -0.4615385   0.0000000), wk =   0.0036413
        k(  499) = (   0.3076923  -0.4615385   0.0769231), wk =   0.0036413
        k(  500) = (   0.3076923  -0.4615385   0.1538462), wk =   0.0036413
        k(  501) = (   0.3076923  -0.4615385  -0.1538462), wk =   0.0018207
        k(  502) = (   0.3076923  -0.4615385  -0.0769231), wk =   0.0036413
        k(  503) = (   0.3076923  -0.3846154   0.0000000), wk =   0.0036413
        k(  504) = (   0.3076923  -0.3846154   0.0769231), wk =   0.0036413
        k(  505) = (   0.3076923  -0.3846154   0.1538462), wk =   0.0036413
        k(  506) = (   0.3076923  -0.3846154   0.2307692), wk =   0.0036413
        k(  507) = (   0.3076923  -0.3846154  -0.0769231), wk =   0.0018207
        k(  508) = (   0.3076923  -0.3076923   0.0000000), wk =   0.0018207
        k(  509) = (   0.3076923  -0.3076923   0.0769231), wk =   0.0036413
        k(  510) = (   0.3076923  -0.3076923   0.1538462), wk =   0.0036413
        k(  511) = (   0.3076923  -0.3076923   0.2307692), wk =   0.0036413
        k(  512) = (   0.3076923  -0.3076923   0.3076923), wk =   0.0036413
        k(  513) = (   0.3076923  -0.3076923   0.3846154), wk =   0.0036413
        k(  514) = (   0.3076923  -0.2307692   0.0769231), wk =   0.0018207
        k(  515) = (   0.3076923  -0.2307692   0.1538462), wk =   0.0036413
        k(  516) = (   0.3076923  -0.2307692   0.2307692), wk =   0.0036413
        k(  517) = (   0.3076923  -0.2307692   0.3076923), wk =   0.0036413
        k(  518) = (   0.3076923  -0.2307692   0.3846154), wk =   0.0036413
        k(  519) = (   0.3076923  -0.2307692   0.4615385), wk =   0.0036413
        k(  520) = (   0.3076923  -0.1538462   0.1538462), wk =   0.0018207
        k(  521) = (   0.3076923  -0.1538462   0.2307692), wk =   0.0036413
        k(  522) = (   0.3076923  -0.1538462   0.3076923), wk =   0.0036413
        k(  523) = (   0.3076923  -0.1538462   0.3846154), wk =   0.0036413
        k(  524) = (   0.3076923  -0.1538462   0.4615385), wk =   0.0036413
        k(  525) = (   0.3076923  -0.0769231   0.2307692), wk =   0.0018207
        k(  526) = (   0.3076923  -0.0769231   0.3076923), wk =   0.0036413
        k(  527) = (   0.3076923  -0.0769231   0.3846154), wk =   0.0036413
        k(  528) = (   0.3076923  -0.0769231   0.4615385), wk =   0.0036413
        k(  529) = (   0.3076923  -0.0769231  -0.4615385), wk =   0.0036413
        k(  530) = (   0.3846154  -0.0000000   0.3846154), wk =   0.0018207
        k(  531) = (   0.3846154  -0.0000000   0.4615385), wk =   0.0036413
        k(  532) = (   0.3846154   0.0000000  -0.4615385), wk =   0.0036413
        k(  533) = (   0.3846154   0.0000000  -0.3846154), wk =   0.0036413
        k(  534) = (   0.3846154   0.0769231   0.4615385), wk =   0.0018207
        k(  535) = (   0.3846154   0.0769231  -0.4615385), wk =   0.0036413
        k(  536) = (   0.3846154   0.0769231  -0.3846154), wk =   0.0036413
        k(  537) = (   0.3846154   0.0769231  -0.3076923), wk =   0.0036413
        k(  538) = (   0.3846154   0.1538462  -0.4615385), wk =   0.0018207
        k(  539) = (   0.3846154   0.1538462  -0.3846154), wk =   0.0036413
        k(  540) = (   0.3846154   0.1538462  -0.3076923), wk =   0.0036413
        k(  541) = (   0.3846154   0.1538462  -0.2307692), wk =   0.0036413
        k(  542) = (   0.3846154   0.2307692  -0.3846154), wk =   0.0018207
        k(  543) = (   0.3846154   0.2307692  -0.3076923), wk =   0.0036413
        k(  544) = (   0.3846154   0.2307692  -0.2307692), wk =   0.0036413
        k(  545) = (   0.3846154   0.2307692  -0.1538462), wk =   0.0036413
        k(  546) = (   0.3846154   0.3076923  -0.3076923), wk =   0.0018207
        k(  547) = (   0.3846154   0.3076923  -0.2307692), wk =   0.0036413
        k(  548) = (   0.3846154   0.3076923  -0.1538462), wk =   0.0036413
        k(  549) = (   0.3846154   0.3076923  -0.0769231), wk =   0.0036413
        k(  550) = (   0.3846154   0.3846154   0.0000000), wk =   0.0018207
        k(  551) = (   0.3846154   0.3846154  -0.2307692), wk =   0.0018207
        k(  552) = (   0.3846154   0.3846154  -0.1538462), wk =   0.0036413
        k(  553) = (   0.3846154   0.3846154  -0.0769231), wk =   0.0036413
        k(  554) = (   0.3846154   0.4615385  -0.0000000), wk =   0.0036413
        k(  555) = (   0.3846154   0.4615385  -0.1538462), wk =   0.0018207
        k(  556) = (   0.3846154   0.4615385  -0.0769231), wk =   0.0036413
        k(  557) = (   0.3846154  -0.4615385   0.0000000), wk =   0.0036413
        k(  558) = (   0.3846154  -0.4615385   0.0769231), wk =   0.0036413
        k(  559) = (   0.3846154  -0.4615385  -0.0769231), wk =   0.0018207
        k(  560) = (   0.3846154  -0.3846154   0.0000000), wk =   0.0018207
        k(  561) = (   0.3846154  -0.3846154   0.0769231), wk =   0.0036413
        k(  562) = (   0.3846154  -0.3846154   0.1538462), wk =   0.0036413
        k(  563) = (   0.3846154  -0.3076923   0.0769231), wk =   0.0018207
        k(  564) = (   0.3846154  -0.3076923   0.1538462), wk =   0.0036413
        k(  565) = (   0.3846154  -0.3076923   0.2307692), wk =   0.0036413
        k(  566) = (   0.3846154  -0.2307692   0.1538462), wk =   0.0018207
        k(  567) = (   0.3846154  -0.2307692   0.2307692), wk =   0.0036413
        k(  568) = (   0.3846154  -0.2307692   0.3076923), wk =   0.0036413
        k(  569) = (   0.3846154  -0.1538462   0.2307692), wk =   0.0018207
        k(  570) = (   0.3846154  -0.1538462   0.3076923), wk =   0.0036413
        k(  571) = (   0.3846154  -0.1538462   0.3846154), wk =   0.0036413
        k(  572) = (   0.3846154  -0.1538462   0.4615385), wk =   0.0036413
        k(  573) = (   0.3846154  -0.0769231   0.3076923), wk =   0.0018207
        k(  574) = (   0.3846154  -0.0769231   0.3846154), wk =   0.0036413
        k(  575) = (   0.3846154  -0.0769231   0.4615385), wk =   0.0036413
        k(  576) = (   0.4615385  -0.0000000   0.4615385), wk =   0.0018207
        k(  577) = (   0.4615385   0.0000000  -0.4615385), wk =   0.0036413
        k(  578) = (   0.4615385   0.0769231  -0.4615385), wk =   0.0018207
        k(  579) = (   0.4615385   0.0769231  -0.3846154), wk =   0.0036413
        k(  580) = (   0.4615385   0.1538462  -0.3846154), wk =   0.0018207
        k(  581) = (   0.4615385   0.1538462  -0.3076923), wk =   0.0036413
        k(  582) = (   0.4615385   0.2307692  -0.3076923), wk =   0.0018207
        k(  583) = (   0.4615385   0.2307692  -0.2307692), wk =   0.0036413
        k(  584) = (   0.4615385   0.3076923  -0.2307692), wk =   0.0018207
        k(  585) = (   0.4615385   0.3076923  -0.1538462), wk =   0.0036413
        k(  586) = (   0.4615385   0.3846154  -0.1538462), wk =   0.0018207
        k(  587) = (   0.4615385   0.3846154  -0.0769231), wk =   0.0036413
        k(  588) = (   0.4615385   0.4615385   0.0000000), wk =   0.0018207
        k(  589) = (   0.4615385   0.4615385  -0.0769231), wk =   0.0018207
        k(  590) = (   0.4615385  -0.4615385   0.0000000), wk =   0.0018207
        k(  591) = (   0.4615385  -0.3846154   0.0769231), wk =   0.0018207
        k(  592) = (   0.4615385  -0.3076923   0.1538462), wk =   0.0018207
        k(  593) = (   0.4615385  -0.2307692   0.2307692), wk =   0.0018207
        k(  594) = (   0.4615385  -0.1538462   0.3076923), wk =   0.0018207
        k(  595) = (   0.4615385  -0.0769231   0.3846154), wk =   0.0018207

     Dense  grid:    37221 G-vectors     FFT dimensions: (  48,  48,  48)

     Smooth grid:    13147 G-vectors     FFT dimensions: (  36,  36,  36)

     Dynamical RAM for                 wfc:       0.45 MB

     Dynamical RAM for     wfc (w. buffer):     269.44 MB

     Dynamical RAM for           str. fact:       0.57 MB

     Dynamical RAM for           local pot:       0.00 MB

     Dynamical RAM for          nlocal pot:       0.90 MB

     Dynamical RAM for                qrad:       1.52 MB

     Dynamical RAM for          rho,v,vnew:       4.24 MB

     Dynamical RAM for               rhoin:       1.41 MB

     Dynamical RAM for            rho*nmix:       9.09 MB

     Dynamical RAM for           G-vectors:       2.23 MB

     Dynamical RAM for          h,s,v(r/c):       0.06 MB

     Dynamical RAM for          <psi|beta>:       0.01 MB

     Dynamical RAM for                 psi:       0.90 MB

     Dynamical RAM for                hpsi:       0.90 MB

     Dynamical RAM for                spsi:       0.90 MB

     Dynamical RAM for      wfcinit/wfcrot:       0.91 MB

     Dynamical RAM for           addusdens:     106.77 MB

     Dynamical RAM for          addusforce:     108.20 MB

     Dynamical RAM for         addusstress:     114.16 MB

     Estimated static dynamical RAM per process >     285.67 MB

     Estimated max dynamical RAM per process >     408.92 MB

     Initial potential from superposition of free atoms

     starting charge      27.9984, renormalised to      28.0000
     Starting wfcs are   18 randomized atomic wfcs

     total cpu time spent up to now is       30.5 secs

     Self-consistent Calculation

     iteration #  1     ecut=    45.00 Ry     beta= 0.40
     Davidson diagonalization with overlap

---- Real-time Memory Report at c_bands before calling an iterative solver
           324 MiB given to the printing process from OS
             0 MiB allocation reported by mallinfo(arena+hblkhd)
           305 MiB available memory on the node where the printing process lives
------------------
     ethr =  1.00E-02,  avg # of iterations =  3.3

     Threshold (ethr) on eigenvalues was too large:
     Diagonalizing with lowered threshold

     Davidson diagonalization with overlap

---- Real-time Memory Report at c_bands before calling an iterative solver
           431 MiB given to the printing process from OS
             0 MiB allocation reported by mallinfo(arena+hblkhd)
           387 MiB available memory on the node where the printing process lives
------------------
     ethr =  1.03E-04,  avg # of iterations =  2.8

     total cpu time spent up to now is      203.1 secs

     total energy              =    -426.38001767 Ry
     estimated scf accuracy    <       0.03011286 Ry

     iteration #  2     ecut=    45.00 Ry     beta= 0.40
     Davidson diagonalization with overlap

---- Real-time Memory Report at c_bands before calling an iterative solver
           437 MiB given to the printing process from OS
             0 MiB allocation reported by mallinfo(arena+hblkhd)
           348 MiB available memory on the node where the printing process lives
------------------
     ethr =  1.08E-04,  avg # of iterations =  1.0

     total cpu time spent up to now is      277.3 secs

     total energy              =    -426.37811197 Ry
     estimated scf accuracy    <       0.00881445 Ry

     iteration #  3     ecut=    45.00 Ry     beta= 0.40
     Davidson diagonalization with overlap

---- Real-time Memory Report at c_bands before calling an iterative solver
           438 MiB given to the printing process from OS
             0 MiB allocation reported by mallinfo(arena+hblkhd)
           301 MiB available memory on the node where the printing process lives
------------------
     ethr =  3.15E-05,  avg # of iterations =  1.8

     total cpu time spent up to now is      355.2 secs

     total energy              =    -426.37851326 Ry
     estimated scf accuracy    <       0.00009597 Ry

     iteration #  4     ecut=    45.00 Ry     beta= 0.40
     Davidson diagonalization with overlap

---- Real-time Memory Report at c_bands before calling an iterative solver
           438 MiB given to the printing process from OS
             0 MiB allocation reported by mallinfo(arena+hblkhd)
           352 MiB available memory on the node where the printing process lives
------------------
     ethr =  3.43E-07,  avg # of iterations =  3.0

     total cpu time spent up to now is      457.8 secs

     total energy              =    -426.37853365 Ry
     estimated scf accuracy    <       0.00000512 Ry

     iteration #  5     ecut=    45.00 Ry     beta= 0.40
     Davidson diagonalization with overlap

---- Real-time Memory Report at c_bands before calling an iterative solver
           439 MiB given to the printing process from OS
             0 MiB allocation reported by mallinfo(arena+hblkhd)
           293 MiB available memory on the node where the printing process lives
------------------
     ethr =  1.83E-08,  avg # of iterations =  2.0

     total cpu time spent up to now is      553.7 secs

     total energy              =    -426.37853473 Ry
     estimated scf accuracy    <       0.00000050 Ry

     iteration #  6     ecut=    45.00 Ry     beta= 0.40
     Davidson diagonalization with overlap

---- Real-time Memory Report at c_bands before calling an iterative solver
           439 MiB given to the printing process from OS
             0 MiB allocation reported by mallinfo(arena+hblkhd)
           319 MiB available memory on the node where the printing process lives
------------------
     ethr =  1.80E-09,  avg # of iterations =  2.0

     total cpu time spent up to now is      641.8 secs

     total energy              =    -426.37853480 Ry
     estimated scf accuracy    <       0.00000004 Ry

     iteration #  7     ecut=    45.00 Ry     beta= 0.40
     Davidson diagonalization with overlap

---- Real-time Memory Report at c_bands before calling an iterative solver
           439 MiB given to the printing process from OS
             0 MiB allocation reported by mallinfo(arena+hblkhd)
           305 MiB available memory on the node where the printing process lives
------------------
     ethr =  1.55E-10,  avg # of iterations =  2.1

     total cpu time spent up to now is      740.1 secs

     total energy              =    -426.37853481 Ry
     estimated scf accuracy    <          3.5E-09 Ry

     iteration #  8     ecut=    45.00 Ry     beta= 0.40
     Davidson diagonalization with overlap

---- Real-time Memory Report at c_bands before calling an iterative solver
           440 MiB given to the printing process from OS
             0 MiB allocation reported by mallinfo(arena+hblkhd)
           373 MiB available memory on the node where the printing process lives
------------------
     ethr =  1.26E-11,  avg # of iterations =  2.0

     total cpu time spent up to now is      822.9 secs

     total energy              =    -426.37853481 Ry
     estimated scf accuracy    <          2.4E-09 Ry

     iteration #  9     ecut=    45.00 Ry     beta= 0.40
     Davidson diagonalization with overlap

---- Real-time Memory Report at c_bands before calling an iterative solver
           440 MiB given to the printing process from OS
             0 MiB allocation reported by mallinfo(arena+hblkhd)
           369 MiB available memory on the node where the printing process lives
------------------
     ethr =  8.55E-12,  avg # of iterations =  2.0

     total cpu time spent up to now is      920.9 secs

     total energy              =    -426.37853481 Ry
     estimated scf accuracy    <          2.0E-09 Ry

     iteration # 10     ecut=    45.00 Ry     beta= 0.40
     Davidson diagonalization with overlap

---- Real-time Memory Report at c_bands before calling an iterative solver
           440 MiB given to the printing process from OS
             0 MiB allocation reported by mallinfo(arena+hblkhd)
           359 MiB available memory on the node where the printing process lives
------------------
     ethr =  6.99E-12,  avg # of iterations =  2.0

     total cpu time spent up to now is     1013.3 secs

     End of self-consistent calculation

          k = 0.0000 0.0000 0.0000 (  1643 PWs)   bands (ev):

   -17.1328 -17.1131 -17.0931 -17.0813 -17.0802 -16.9143 -16.8964 -16.8876
   -16.8868 -16.8789  -4.7651   7.0817   7.6076   7.6121   7.6515   9.8438
    10.1738  10.4249

     occupation numbers 
     1.0000   1.0000   1.0000   1.0000   1.0000   1.0000   1.0000   1.0000
     1.0000   1.0000   1.0000   1.0593   0.3174   0.3075   0.2273   0.0000
     0.0000   0.0000

          k = 0.0566 0.0544-0.0544 (  1652 PWs)   bands (ev):

   -17.1330 -17.1147 -17.0993 -17.0767 -17.0730 -16.9171 -16.9015 -16.8883
   -16.8854 -16.8747  -4.6935   6.0634   7.4583   7.4758   8.1903  10.0451
    10.4539  10.5749

     occupation numbers 
     1.0000   1.0000   1.0000   1.0000   1.0000   1.0000   1.0000   1.0000
     1.0000   1.0000   1.0000   1.0000   0.7103   0.6629   0.0001   0.0000
     0.0000   0.0000

          k = 0.1131 0.1088-0.1088 (  1656 PWs)   bands (ev):

   -17.1344 -17.1160 -17.1075 -17.0666 -17.0623 -16.9227 -16.9110 -16.8915
   -16.8810 -16.8683  -4.4809   4.6850   7.1378   7.1458   8.2683  10.4830
    10.8463  11.4295

     occupation numbers 
     1.0000   1.0000   1.0000   1.0000   1.0000   1.0000   1.0000   1.0000
     1.0000   1.0000   1.0000   1.0000   1.0765   1.0783   0.0000   0.0000
     0.0000   0.0000

          k = 0.1697 0.1632-0.1632 (  1651 PWs)   bands (ev):

   -17.1367 -17.1145 -17.1137 -17.0554 -17.0532 -16.9278 -16.9207 -16.8960
   -16.8770 -16.8631  -4.1349   3.3140   6.7976   6.8072   8.0246  10.8896
    11.2282  12.6134

     occupation numbers 
     1.0000   1.0000   1.0000   1.0000   1.0000   1.0000   1.0000   1.0000
     1.0000   1.0000   1.0000   1.0000   1.0028   1.0033   0.0019   0.0000
     0.0000   0.0000

          k = 0.2263 0.2176-0.2176 (  1657 PWs)   bands (ev):

   -17.1385 -17.1176 -17.1115 -17.0473 -17.0458 -16.9306 -16.9287 -16.9008
   -16.8743 -16.8595  -3.6751   2.0464   6.5093   6.5334   7.7544  11.0943
    11.4180  13.8981

     occupation numbers 
     1.0000   1.0000   1.0000   1.0000   1.0000   1.0000   1.0000   1.0000
     1.0000   1.0000   1.0000   1.0000   1.0000   1.0000   0.0863   0.0000
     0.0000   0.0000

          k = 0.2828 0.2720-0.2720 (  1659 PWs)   bands (ev):

   -17.1393 -17.1195 -17.1085 -17.0445 -17.0393 -16.9341 -16.9312 -16.9048
   -16.8730 -16.8575  -3.1555   0.9731   6.3079   6.3441   7.5530  11.1198
    11.4356  14.5893

     occupation numbers 
     1.0000   1.0000   1.0000   1.0000   1.0000   1.0000   1.0000   1.0000
     1.0000   1.0000   1.0000   1.0000   1.0000   1.0000   0.4517   0.0000
     0.0000   0.0000

          k = 0.3394 0.3264-0.3264 (  1634 PWs)   bands (ev):

   -17.1394 -17.1202 -17.1067 -17.0437 -17.0361 -16.9367 -16.9308 -16.9070
   -16.8726 -16.8566  -2.7368   0.2734   6.2052   6.2481   7.4483  11.0924
    11.4065  14.4930

     occupation numbers 
     1.0000   1.0000   1.0000   1.0000   1.0000   1.0000   1.0000   1.0000
     1.0000   1.0000   1.0000   1.0000   1.0000   1.0000   0.7370   0.0000
     0.0000   0.0000

          k = 0.0522-0.0544 0.0544 (  1651 PWs)   bands (ev):

   -17.1347 -17.1151 -17.0940 -17.0772 -17.0771 -16.9149 -16.9007 -16.8941
   -16.8830 -16.8731  -4.6991   5.9719   7.4859   7.5303   8.2879  10.1889
    10.2944  10.5869

     occupation numbers 
     1.0000   1.0000   1.0000   1.0000   1.0000   1.0000   1.0000   1.0000
     1.0000   1.0000   1.0000   1.0000   0.6349   0.5124   0.0000   0.0000
     0.0000   0.0000

          k = 0.1088 0.0000 0.0000 (  1650 PWs)   bands (ev):

   -17.1340 -17.1151 -17.0989 -17.0780 -17.0700 -16.9207 -16.8936 -16.8921
   -16.8890 -16.8721  -4.6732   5.9284   7.2318   7.2503   8.7346   9.7925
    10.6718  10.6805

     occupation numbers 
     1.0000   1.0000   1.0000   1.0000   1.0000   1.0000   1.0000   1.0000
     1.0000   1.0000   1.0000   1.0000   1.0761   1.0679   0.0000   0.0000
     0.0000   0.0000

          k = 0.1654 0.0544-0.0544 (  1647 PWs)   bands (ev):

   -17.1333 -17.1178 -17.1070 -17.0706 -17.0584 -16.9298 -16.9026 -16.8894
   -16.8826 -16.8701  -4.5054   4.9255   6.8641   6.9976   8.9494   9.7650
    11.0938  11.4679

     occupation numbers 
     1.0000   1.0000   1.0000   1.0000   1.0000   1.0000   1.0000   1.0000
     1.0000   1.0000   1.0000   1.0000   1.0073   1.0318   0.0000   0.0000
     0.0000   0.0000

          k = 0.2219 0.1088-0.1088 (  1651 PWs)   bands (ev):

   -17.1337 -17.1204 -17.1119 -17.0603 -17.0475 -16.9380 -16.9129 -16.8909
   -16.8764 -16.8666  -4.2009   3.6523   6.5149   6.6418   8.7811  10.1679
    11.5526  12.3324

     occupation numbers 
     1.0000   1.0000   1.0000   1.0000   1.0000   1.0000   1.0000   1.0000
     1.0000   1.0000   1.0000   1.0000   1.0000   1.0002   0.0000   0.0000
     0.0000   0.0000

          k = 0.2785 0.1632-0.1632 (  1652 PWs)   bands (ev):

   -17.1357 -17.1237 -17.1100 -17.0506 -17.0396 -16.9431 -16.9219 -16.8964
   -16.8718 -16.8624  -3.7743   2.3941   6.2198   6.2849   8.5179  10.6214
    11.7909  13.0753

     occupation numbers 
     1.0000   1.0000   1.0000   1.0000   1.0000   1.0000   1.0000   1.0000
     1.0000   1.0000   1.0000   1.0000   1.0000   1.0000   0.0000   0.0000
     0.0000   0.0000

          k = 0.3351 0.2176-0.2176 (  1650 PWs)   bands (ev):

   -17.1382 -17.1262 -17.1048 -17.0433 -17.0357 -16.9439 -16.9291 -16.9033
   -16.8688 -16.8587  -3.2637   1.2717   5.9041   6.1097   8.2977  10.8589
    11.7803  13.9011

     occupation numbers 
     1.0000   1.0000   1.0000   1.0000   1.0000   1.0000   1.0000   1.0000
     1.0000   1.0000   1.0000   1.0000   1.0000   1.0000   0.0000   0.0000
     0.0000   0.0000

          k = 0.3916 0.2720-0.2720 (  1649 PWs)   bands (ev):

   -17.1405 -17.1273 -17.0998 -17.0400 -17.0341 -16.9413 -16.9340 -16.9098
   -16.8675 -16.8558  -2.7821   0.4333   5.6619   6.0626   8.1607  10.9574
    11.6606  14.5665

     occupation numbers 
     1.0000   1.0000   1.0000   1.0000   1.0000   1.0000   1.0000   1.0000
     1.0000   1.0000   1.0000   1.0000   1.0000   1.0000   0.0001   0.0000
     0.0000   0.0000

          k =-0.2872-0.3807 0.3807 (  1642 PWs)   bands (ev):

   -17.1423 -17.1271 -17.0968 -17.0414 -17.0325 -16.9403 -16.9333 -16.9141
   -16.8677 -16.8538  -2.6180   0.1825   5.5239   6.1274   8.1200  11.0531
    11.5451  14.7362

     occupation numbers 
     1.0000   1.0000   1.0000   1.0000   1.0000   1.0000   1.0000   1.0000
     1.0000   1.0000   1.0000   1.0000   1.0000   1.0000   0.0003   0.0000
     0.0000   0.0000

          k =-0.2306-0.3264 0.3264 (  1654 PWs)   bands (ev):

   -17.1435 -17.1259 -17.0971 -17.0446 -17.0330 -16.9411 -16.9294 -16.9137
   -16.8693 -16.8532  -2.9401   0.6908   5.5016   6.2961   8.1784  11.1790
    11.4705  14.7156

     occupation numbers 
     1.0000   1.0000   1.0000   1.0000   1.0000   1.0000   1.0000   1.0000
     1.0000   1.0000   1.0000   1.0000   1.0000   1.0000   0.0001   0.0000
     0.0000   0.0000

          k =-0.1741-0.2720 0.2720 (  1651 PWs)   bands (ev):

   -17.1434 -17.1234 -17.1003 -17.0488 -17.0373 -16.9389 -16.9270 -16.9074
   -16.8725 -16.8542  -3.4544   1.6554   5.6047   6.5556   8.3295  11.2225
    11.4444  14.0003

     occupation numbers 
     1.0000   1.0000   1.0000   1.0000   1.0000   1.0000   1.0000   1.0000
     1.0000   1.0000   1.0000   1.0000   1.0000   1.0000   0.0000   0.0000
     0.0000   0.0000

          k =-0.1175-0.2176 0.2176 (  1644 PWs)   bands (ev):

   -17.1417 -17.1200 -17.1044 -17.0549 -17.0456 -16.9331 -16.9237 -16.8984
   -16.8772 -16.8572  -3.9416   2.8307   5.8456   6.8828   8.5476  11.0144
    11.3579  12.9321

     occupation numbers 
     1.0000   1.0000   1.0000   1.0000   1.0000   1.0000   1.0000   1.0000
     1.0000   1.0000   1.0000   1.0000   1.0000   1.0092   0.0000   0.0000
     0.0000   0.0000

          k =-0.0609-0.1632 0.1632 (  1653 PWs)   bands (ev):

   -17.1388 -17.1177 -17.1048 -17.0633 -17.0565 -16.9253 -16.9180 -16.8897
   -16.8835 -16.8623  -4.3264   4.0780   6.2484   7.2302   8.7448  10.6318
    10.9345  12.0259

     occupation numbers 
     1.0000   1.0000   1.0000   1.0000   1.0000   1.0000   1.0000   1.0000
     1.0000   1.0000   1.0000   1.0000   1.0000   1.0767   0.0000   0.0000
     0.0000   0.0000

          k =-0.0044-0.1088 0.1088 (  1651 PWs)   bands (ev):

   -17.1359 -17.1170 -17.0992 -17.0724 -17.0680 -16.9177 -16.9098 -16.8906
   -16.8830 -16.8689  -4.5823   5.2172   6.8634   7.4908   8.6645  10.3457
    10.4110  11.2035

     occupation numbers 
     1.0000   1.0000   1.0000   1.0000   1.0000   1.0000   1.0000   1.0000
     1.0000   1.0000   1.0000   1.0000   1.0072   0.6213   0.0000   0.0000
     0.0000   0.0000

          k = 0.1044-0.1088 0.1088 (  1635 PWs)   bands (ev):

   -17.1388 -17.1195 -17.0939 -17.0697 -17.0693 -16.9163 -16.9074 -16.9033
   -16.8775 -16.8656  -4.5037   4.5728   7.2103   7.2517   8.4257  10.5925
    10.9542  11.2356

     occupation numbers 
     1.0000   1.0000   1.0000   1.0000   1.0000   1.0000   1.0000   1.0000
     1.0000   1.0000   1.0000   1.0000   1.0816   1.0672   0.0000   0.0000
     0.0000   0.0000

          k = 0.1610-0.0544 0.0544 (  1647 PWs)   bands (ev):

   -17.1382 -17.1183 -17.0976 -17.0734 -17.0629 -16.9265 -16.8984 -16.8967
   -16.8846 -16.8652  -4.5222   4.8722   6.8783   6.9683   9.1886   9.9974
    11.0545  11.2933

     occupation numbers 
     1.0000   1.0000   1.0000   1.0000   1.0000   1.0000   1.0000   1.0000
     1.0000   1.0000   1.0000   1.0000   1.0087   1.0242   0.0000   0.0000
     0.0000   0.0000

          k = 0.2176 0.0000 0.0000 (  1640 PWs)   bands (ev):

   -17.1362 -17.1203 -17.1059 -17.0691 -17.0504 -16.9402 -16.8990 -16.8870
   -16.8858 -16.8666  -4.3988   4.5559   6.5298   6.5376   9.2693   9.8494
    11.6525  11.7349

     occupation numbers 
     1.0000   1.0000   1.0000   1.0000   1.0000   1.0000   1.0000   1.0000
     1.0000   1.0000   1.0000   1.0000   1.0000   1.0000   0.0000   0.0000
     0.0000   0.0000

          k = 0.2741 0.0544-0.0544 (  1646 PWs)   bands (ev):

   -17.1338 -17.1241 -17.1121 -17.0601 -17.0374 -16.9527 -16.9089 -16.8831
   -16.8777 -16.8679  -4.1371   3.6605   6.1615   6.2096   9.2022   9.8833
    12.1409  12.3534

     occupation numbers 
     1.0000   1.0000   1.0000   1.0000   1.0000   1.0000   1.0000   1.0000
     1.0000   1.0000   1.0000   1.0000   1.0000   1.0000   0.0000   0.0000
     0.0000   0.0000

          k = 0.3307 0.1088-0.1088 (  1654 PWs)   bands (ev):

   -17.1350 -17.1283 -17.1104 -17.0499 -17.0273 -16.9614 -16.9193 -16.8891
   -16.8707 -16.8634  -3.7474   2.5712   5.7149   5.9216   9.2803  10.0982
    12.3446  12.5668

     occupation numbers 
     1.0000   1.0000   1.0000   1.0000   1.0000   1.0000   1.0000   1.0000
     1.0000   1.0000   1.0000   1.0000   1.0000   1.0000   0.0000   0.0000
     0.0000   0.0000

          k = 0.3873 0.1632-0.1632 (  1653 PWs)   bands (ev):

   -17.1399 -17.1314 -17.1021 -17.0406 -17.0225 -16.9640 -16.9289 -16.8999
   -16.8656 -16.8569  -3.2565   1.4999   5.2548   5.7706   9.1119  10.6323
    12.5299  12.6277

     occupation numbers 
     1.0000   1.0000   1.0000   1.0000   1.0000   1.0000   1.0000   1.0000
     1.0000   1.0000   1.0000   1.0000   1.0000   1.0000   0.0000   0.0000
     0.0000   0.0000

          k = 0.4438 0.2176-0.2176 (  1652 PWs)   bands (ev):

   -17.1448 -17.1333 -17.0925 -17.0331 -17.0235 -16.9600 -16.9376 -16.9112
   -16.8622 -16.8514  -2.7417   0.6026   4.8838   5.7441   8.9603  10.9340
    12.3853  13.4037

     occupation numbers 
     1.0000   1.0000   1.0000   1.0000   1.0000   1.0000   1.0000   1.0000
     1.0000   1.0000   1.0000   1.0000   1.0000   1.0000   0.0000   0.0000
     0.0000   0.0000

          k =-0.2350-0.4351 0.4351 (  1646 PWs)   bands (ev):

   -17.1482 -17.1342 -17.0850 -17.0317 -17.0246 -16.9516 -16.9443 -16.9205
   -16.8605 -16.8479  -2.4349   0.1460   4.6348   5.8394   8.8970  11.0812
    12.1784  14.4966

     occupation numbers 
     1.0000   1.0000   1.0000   1.0000   1.0000   1.0000   1.0000   1.0000
     1.0000   1.0000   1.0000   1.0000   1.0000   1.0000   0.0000   0.0000
     0.0000   0.0000

          k =-0.1784-0.3807 0.3807 (  1647 PWs)   bands (ev):

   -17.1499 -17.1337 -17.0821 -17.0384 -17.0230 -16.9504 -16.9377 -16.9263
   -16.8610 -16.8467  -2.6305   0.4338   4.5284   6.0476   8.9301  11.2466
    11.9780  14.8525

     occupation numbers 
     1.0000   1.0000   1.0000   1.0000   1.0000   1.0000   1.0000   1.0000
     1.0000   1.0000   1.0000   1.0000   1.0000   1.0000   0.0000   0.0000
     0.0000   0.0000

          k =-0.1218-0.3264 0.3264 (  1652 PWs)   bands (ev):

   -17.1497 -17.1315 -17.0848 -17.0458 -17.0261 -16.9495 -16.9288 -16.9232
   -16.8641 -16.8478  -3.1230   1.2452   4.5904   6.3506   9.0434  11.4468
    11.7493  13.8135

     occupation numbers 
     1.0000   1.0000   1.0000   1.0000   1.0000   1.0000   1.0000   1.0000
     1.0000   1.0000   1.0000   1.0000   1.0000   1.0000   0.0000   0.0000
     0.0000   0.0000

          k =-0.0653-0.2720 0.2720 (  1648 PWs)   bands (ev):

   -17.1477 -17.1275 -17.0916 -17.0525 -17.0348 -16.9430 -16.9275 -16.9086
   -16.8699 -16.8510  -3.6298   2.2443   4.8692   6.7142   9.1847  11.3957
    11.5126  12.8567

     occupation numbers 
     1.0000   1.0000   1.0000   1.0000   1.0000   1.0000   1.0000   1.0000
     1.0000   1.0000   1.0000   1.0000   1.0000   1.0007   0.0000   0.0000
     0.0000   0.0000

          k =-0.0087-0.2176 0.2176 (  1646 PWs)   bands (ev):

   -17.1442 -17.1232 -17.0975 -17.0593 -17.0468 -16.9331 -16.9233 -16.8970
   -16.8768 -16.8560  -4.0483   3.2127   5.4540   7.0704   9.1935  10.9984
    11.0767  12.4935

     occupation numbers 
     1.0000   1.0000   1.0000   1.0000   1.0000   1.0000   1.0000   1.0000
     1.0000   1.0000   1.0000   1.0000   1.0000   1.0554   0.0000   0.0000
     0.0000   0.0000

          k = 0.0479-0.1632 0.1632 (  1641 PWs)   bands (ev):

   -17.1406 -17.1210 -17.0972 -17.0663 -17.0593 -16.9222 -16.9164 -16.8972
   -16.8775 -16.8622  -4.3441   3.9944   6.3849   7.2878   8.8079  10.6186
    10.8967  12.0565

     occupation numbers 
     1.0000   1.0000   1.0000   1.0000   1.0000   1.0000   1.0000   1.0000
     1.0000   1.0000   1.0000   1.0000   1.0000   1.0401   0.0000   0.0000
     0.0000   0.0000

          k = 0.1567-0.1632 0.1632 (  1631 PWs)   bands (ev):

   -17.1432 -17.1238 -17.0924 -17.0621 -17.0610 -16.9179 -16.9134 -16.9120
   -16.8731 -16.8595  -4.1881   3.2271   6.9174   6.9433   8.2324  10.9466
    11.3071  12.5172

     occupation numbers 
     1.0000   1.0000   1.0000   1.0000   1.0000   1.0000   1.0000   1.0000
     1.0000   1.0000   1.0000   1.0000   1.0140   1.0187   0.0000   0.0000
     0.0000   0.0000

          k = 0.2132-0.1088 0.1088 (  1641 PWs)   bands (ev):

   -17.1432 -17.1229 -17.0944 -17.0662 -17.0548 -16.9322 -16.9056 -16.9031
   -16.8780 -16.8585  -4.2468   3.6058   6.5457   6.6519   9.0704  10.5316
    11.4770  12.1964

     occupation numbers 
     1.0000   1.0000   1.0000   1.0000   1.0000   1.0000   1.0000   1.0000
     1.0000   1.0000   1.0000   1.0000   1.0000   1.0002   0.0000   0.0000
     0.0000   0.0000

          k = 0.2698-0.0544 0.0544 (  1648 PWs)   bands (ev):

   -17.1417 -17.1240 -17.1018 -17.0634 -17.0413 -16.9501 -16.9042 -16.8921
   -16.8797 -16.8599  -4.1653   3.6711   6.0827   6.2307   9.2981  10.2307
    12.1646  12.2763

     occupation numbers 
     1.0000   1.0000   1.0000   1.0000   1.0000   1.0000   1.0000   1.0000
     1.0000   1.0000   1.0000   1.0000   1.0000   1.0000   0.0000   0.0000
     0.0000   0.0000

          k = 0.3264 0.0000 0.0000 (  1648 PWs)   bands (ev):

   -17.1378 -17.1272 -17.1097 -17.0552 -17.0262 -16.9669 -16.9114 -16.8818
   -16.8752 -16.8649  -3.9454   3.2052   5.8592   5.8594   8.7349  10.2230
    12.8693  12.9111

     occupation numbers 
     1.0000   1.0000   1.0000   1.0000   1.0000   1.0000   1.0000   1.0000
     1.0000   1.0000   1.0000   1.0000   1.0000   1.0000   0.0000   0.0000
     0.0000   0.0000

          k = 0.3829 0.0544-0.0544 (  1647 PWs)   bands (ev):

   -17.1353 -17.1317 -17.1114 -17.0449 -17.0128 -16.9801 -16.9218 -16.8823
   -16.8683 -16.8649  -3.5942   2.3983   5.4869   5.5828   8.7521  10.0336
    12.8927  13.3901

     occupation numbers 
     1.0000   1.0000   1.0000   1.0000   1.0000   1.0000   1.0000   1.0000
     1.0000   1.0000   1.0000   1.0000   1.0000   1.0000   0.0000   0.0000
     0.0000   0.0000

          k = 0.4395 0.1088-0.1088 (  1649 PWs)   bands (ev):

   -17.1406 -17.1346 -17.1025 -17.0344 -17.0061 -16.9857 -16.9327 -16.8952
   -16.8628 -16.8562  -3.1301   1.4934   4.9310   5.4215   8.9763  10.2905
    12.6375  13.5409

     occupation numbers 
     1.0000   1.0000   1.0000   1.0000   1.0000   1.0000   1.0000   1.0000
     1.0000   1.0000   1.0000   1.0000   1.0000   1.0000   0.0000   0.0000
     0.0000   0.0000

          k = 0.4961 0.1632-0.1632 (  1651 PWs)   bands (ev):

   -17.1479 -17.1367 -17.0896 -17.0247 -17.0082 -16.9814 -16.9435 -16.9102
   -16.8587 -16.8479  -2.6049   0.6452   4.4056   5.3884   8.9884  11.1336
    12.5424  13.4072

     occupation numbers 
     1.0000   1.0000   1.0000   1.0000   1.0000   1.0000   1.0000   1.0000
     1.0000   1.0000   1.0000   1.0000   1.0000   1.0000   0.0000   0.0000
     0.0000   0.0000

          k =-0.1828-0.4895 0.4895 (  1653 PWs)   bands (ev):

   -17.1534 -17.1382 -17.0782 -17.0177 -17.0124 -16.9736 -16.9534 -16.9224
   -16.8560 -16.8423  -2.1898   0.0729   4.0171   5.4837   9.0042  11.7608
    13.0724  13.1949

     occupation numbers 
     1.0000   1.0000   1.0000   1.0000   1.0000   1.0000   1.0000   1.0000
     1.0000   1.0000   1.0000   1.0000   1.0000   1.0000   0.0000   0.0000
     0.0000   0.0000

          k =-0.1262-0.4351 0.4351 (  1646 PWs)   bands (ev):

   -17.1561 -17.1386 -17.0718 -17.0241 -17.0110 -16.9624 -16.9592 -16.9293
   -16.8553 -16.8399  -2.2460   0.1510   3.8146   5.6995   9.1090  11.9132
    12.8628  14.3278

     occupation numbers 
     1.0000   1.0000   1.0000   1.0000   1.0000   1.0000   1.0000   1.0000
     1.0000   1.0000   1.0000   1.0000   1.0000   1.0000   0.0000   0.0000
     0.0000   0.0000

          k =-0.0696-0.3807 0.3807 (  1650 PWs)   bands (ev):

   -17.1560 -17.1373 -17.0717 -17.0365 -17.0146 -16.9593 -16.9451 -16.9307
   -16.8570 -16.8411  -2.7038   0.7825   3.8506   6.0171   9.2841  12.0364
    12.5047  13.6914

     occupation numbers 
     1.0000   1.0000   1.0000   1.0000   1.0000   1.0000   1.0000   1.0000
     1.0000   1.0000   1.0000   1.0000   1.0000   1.0000   0.0000   0.0000
     0.0000   0.0000

          k =-0.0131-0.3264 0.3264 (  1643 PWs)   bands (ev):

   -17.1534 -17.1339 -17.0783 -17.0471 -17.0251 -16.9511 -16.9329 -16.9232
   -16.8617 -16.8449  -3.2202   1.5431   4.2099   6.3988   9.4300  11.9275
    12.1331  12.6885

     occupation numbers 
     1.0000   1.0000   1.0000   1.0000   1.0000   1.0000   1.0000   1.0000
     1.0000   1.0000   1.0000   1.0000   1.0000   1.0000   0.0000   0.0000
     0.0000   0.0000

          k = 0.0435-0.2720 0.2720 (  1642 PWs)   bands (ev):

   -17.1493 -17.1289 -17.0882 -17.0542 -17.0385 -16.9394 -16.9279 -16.9090
   -16.8685 -16.8505  -3.6633   2.2081   4.9668   6.7691   9.2880  11.3900
    11.5372  12.7554

     occupation numbers 
     1.0000   1.0000   1.0000   1.0000   1.0000   1.0000   1.0000   1.0000
     1.0000   1.0000   1.0000   1.0000   1.0000   1.0018   0.0000   0.0000
     0.0000   0.0000

          k = 0.1001-0.2176 0.2176 (  1632 PWs)   bands (ev):

   -17.1451 -17.1252 -17.0934 -17.0595 -17.0515 -16.9270 -16.9215 -16.9046
   -16.8724 -16.8565  -3.9913   2.7508   6.0374   6.9910   8.6836  10.9594
    11.3973  12.8758

     occupation numbers 
     1.0000   1.0000   1.0000   1.0000   1.0000   1.0000   1.0000   1.0000
     1.0000   1.0000   1.0000   1.0000   1.0000   1.0300   0.0000   0.0000
     0.0000   0.0000

          k = 0.2089-0.2176 0.2176 (  1628 PWs)   bands (ev):

   -17.1465 -17.1269 -17.0904 -17.0568 -17.0534 -16.9189 -16.9189 -16.9180
   -16.8703 -16.8551  -3.7751   2.0138   6.6720   6.6790   8.0035  11.1575
    11.4978  13.8355

     occupation numbers 
     1.0000   1.0000   1.0000   1.0000   1.0000   1.0000   1.0000   1.0000
     1.0000   1.0000   1.0000   1.0000   1.0003   1.0004   0.0027   0.0000
     0.0000   0.0000

          k = 0.2654-0.1632 0.1632 (  1628 PWs)   bands (ev):

   -17.1475 -17.1268 -17.0902 -17.0594 -17.0478 -16.9362 -16.9121 -16.9097
   -16.8728 -16.8531  -3.8636   2.3863   6.2275   6.4025   8.8342  10.9481
    11.7222  13.1460

     occupation numbers 
     1.0000   1.0000   1.0000   1.0000   1.0000   1.0000   1.0000   1.0000
     1.0000   1.0000   1.0000   1.0000   1.0000   1.0000   0.0000   0.0000
     0.0000   0.0000

          k = 0.3220-0.1088 0.1088 (  1639 PWs)   bands (ev):

   -17.1477 -17.1280 -17.0949 -17.0561 -17.0335 -16.9573 -16.9119 -16.9001
   -16.8731 -16.8526  -3.8166   2.6122   5.6195   6.0003   9.3842  10.6073
    12.4465  12.5471

     occupation numbers 
     1.0000   1.0000   1.0000   1.0000   1.0000   1.0000   1.0000   1.0000
     1.0000   1.0000   1.0000   1.0000   1.0000   1.0000   0.0000   0.0000
     0.0000   0.0000

          k = 0.3786-0.0544 0.0544 (  1647 PWs)   bands (ev):

   -17.1445 -17.1307 -17.1021 -17.0479 -17.0161 -16.9782 -16.9183 -16.8904
   -16.8696 -16.8561  -3.6339   2.4518   5.3783   5.6173   8.8268  10.2416
    13.1753  13.4116

     occupation numbers 
     1.0000   1.0000   1.0000   1.0000   1.0000   1.0000   1.0000   1.0000
     1.0000   1.0000   1.0000   1.0000   1.0000   1.0000   0.0000   0.0000
     0.0000   0.0000

          k = 0.4351 0.0000 0.0000 (  1646 PWs)   bands (ev):

   -17.1396 -17.1341 -17.1070 -17.0372 -16.9993 -16.9963 -16.9282 -16.8852
   -16.8643 -16.8605  -3.3195   1.8947   5.3163   5.3201   8.3561   9.7291
    14.1208  14.1563

     occupation numbers 
     1.0000   1.0000   1.0000   1.0000   1.0000   1.0000   1.0000   1.0000
     1.0000   1.0000   1.0000   1.0000   1.0000   1.0000   0.0000   0.0000
     0.0000   0.0000

          k = 0.4917 0.0544-0.0544 (  1648 PWs)   bands (ev):

   -17.1397 -17.1377 -17.1022 -17.0259 -17.0096 -16.9856 -16.9395 -16.8933
   -16.8591 -16.8568  -2.8857   1.1670   4.9537   5.1342   8.4731   9.5120
    13.9587  14.5902

     occupation numbers 
     1.0000   1.0000   1.0000   1.0000   1.0000   1.0000   1.0000   1.0000
     1.0000   1.0000   1.0000   1.0000   1.0000   1.0000   0.0000   0.0000
     0.0000   0.0000

          k = 0.5483 0.1088-0.1088 (  1654 PWs)   bands (ev):

   -17.1474 -17.1392 -17.0884 -17.0179 -17.0132 -16.9774 -16.9513 -16.9094
   -16.8556 -16.8478  -2.3660   0.4289   4.3624   5.0793   8.6838  10.0186
    13.6702  14.5844

     occupation numbers 
     1.0000   1.0000   1.0000   1.0000   1.0000   1.0000   1.0000   1.0000
     1.0000   1.0000   1.0000   1.0000   1.0000   1.0000   0.0000   0.0000
     0.0000   0.0000

          k =-0.1305-0.5439 0.5439 (  1648 PWs)   bands (ev):

   -17.1548 -17.1405 -17.0745 -17.0155 -17.0038 -16.9775 -16.9626 -16.9241
   -16.8531 -16.8402  -1.8788  -0.1628   3.8265   5.1563   8.7603  11.1754
    13.4473  14.3338

     occupation numbers 
     1.0000   1.0000   1.0000   1.0000   1.0000   1.0000   1.0000   1.0000
     1.0000   1.0000   1.0000   1.0000   1.0000   1.0000   0.0000   0.0000
     0.0000   0.0000

          k =-0.0740-0.4895 0.4895 (  1649 PWs)   bands (ev):

   -17.1595 -17.1412 -17.0668 -17.0089 -16.9988 -16.9822 -16.9700 -16.9311
   -16.8523 -16.8359  -1.8198  -0.2196   3.4995   5.3594   8.9089  12.5256
    13.3680  13.9716

     occupation numbers 
     1.0000   1.0000   1.0000   1.0000   1.0000   1.0000   1.0000   1.0000
     1.0000   1.0000   1.0000   1.0000   1.0000   1.0000   0.0000   0.0000
     0.0000   0.0000

          k =-0.0174-0.4351 0.4351 (  1646 PWs)   bands (ev):

   -17.1605 -17.1405 -17.0654 -17.0199 -17.0061 -16.9686 -16.9656 -16.9320
   -16.8533 -16.8358  -2.2535   0.2715   3.4885   5.6715   9.1435  12.9812
    13.3869  13.6722

     occupation numbers 
     1.0000   1.0000   1.0000   1.0000   1.0000   1.0000   1.0000   1.0000
     1.0000   1.0000   1.0000   1.0000   1.0000   1.0000   0.0000   0.0000
     0.0000   0.0000

          k = 0.0392-0.3807 0.3807 (  1644 PWs)   bands (ev):

   -17.1581 -17.1378 -17.0695 -17.0373 -17.0195 -16.9544 -16.9466 -16.9298
   -16.8569 -16.8396  -2.7651   0.8132   3.8922   6.0568   9.3557  12.2670
    12.5933  13.3638

     occupation numbers 
     1.0000   1.0000   1.0000   1.0000   1.0000   1.0000   1.0000   1.0000
     1.0000   1.0000   1.0000   1.0000   1.0000   1.0000   0.0000   0.0000
     0.0000   0.0000

          k = 0.0957-0.3264 0.3264 (  1645 PWs)   bands (ev):

   -17.1533 -17.1332 -17.0797 -17.0483 -17.0338 -16.9418 -16.9313 -16.9217
   -16.8628 -16.8459  -3.2126   1.2494   4.7143   6.4433   9.2164  11.6078
    11.7481  13.5571

     occupation numbers 
     1.0000   1.0000   1.0000   1.0000   1.0000   1.0000   1.0000   1.0000
     1.0000   1.0000   1.0000   1.0000   1.0000   1.0000   0.0000   0.0000
     0.0000   0.0000

          k = 0.1523-0.2720 0.2720 (  1638 PWs)   bands (ev):

   -17.1486 -17.1286 -17.0890 -17.0537 -17.0463 -16.9295 -16.9249 -16.9126
   -16.8684 -16.8522  -3.5552   1.6297   5.8039   6.6988   8.5258  11.2124
    11.5460  13.8247

     occupation numbers 
     1.0000   1.0000   1.0000   1.0000   1.0000   1.0000   1.0000   1.0000
     1.0000   1.0000   1.0000   1.0000   1.0000   1.0006   0.0000   0.0000
     0.0000   0.0000

          k = 0.2611-0.2720 0.2720 (  1639 PWs)   bands (ev):

   -17.1485 -17.1286 -17.0888 -17.0539 -17.0480 -16.9235 -16.9215 -16.9188
   -16.8688 -16.8522  -3.3230   1.0172   6.4890   6.5031   7.8289  11.2138
    11.5391  14.6994

     occupation numbers 
     1.0000   1.0000   1.0000   1.0000   1.0000   1.0000   1.0000   1.0000
     1.0000   1.0000   1.0000   1.0000   1.0000   1.0000   0.0362   0.0000
     0.0000   0.0000

          k = 0.3177-0.2176 0.2176 (  1631 PWs)   bands (ev):

   -17.1504 -17.1296 -17.0863 -17.0541 -17.0433 -16.9372 -16.9174 -16.9161
   -16.8690 -16.8495  -3.4142   1.3252   5.9554   6.2634   8.6176  11.1418
    11.7462  14.1176

     occupation numbers 
     1.0000   1.0000   1.0000   1.0000   1.0000   1.0000   1.0000   1.0000
     1.0000   1.0000   1.0000   1.0000   1.0000   1.0000   0.0000   0.0000
     0.0000   0.0000

          k = 0.3742-0.1632 0.1632 (  1635 PWs)   bands (ev):

   -17.1527 -17.1315 -17.0868 -17.0491 -17.0289 -16.9602 -16.9196 -16.9097
   -16.8676 -16.8464  -3.3822   1.5871   5.2112   5.8756   9.2903  11.0877
    12.5558  12.7934

     occupation numbers 
     1.0000   1.0000   1.0000   1.0000   1.0000   1.0000   1.0000   1.0000
     1.0000   1.0000   1.0000   1.0000   1.0000   1.0000   0.0000   0.0000
     0.0000   0.0000

          k = 0.4308-0.1088 0.1088 (  1641 PWs)   bands (ev):

   -17.1515 -17.1341 -17.0911 -17.0399 -17.0091 -16.9848 -16.9268 -16.9027
   -16.8641 -16.8472  -3.2229   1.6037   4.8201   5.4809   9.0281  10.6357
    12.9654  13.6023

     occupation numbers 
     1.0000   1.0000   1.0000   1.0000   1.0000   1.0000   1.0000   1.0000
     1.0000   1.0000   1.0000   1.0000   1.0000   1.0000   0.0000   0.0000
     0.0000   0.0000

          k = 0.4874-0.0544 0.0544 (  1653 PWs)   bands (ev):

   -17.1467 -17.1367 -17.0958 -17.0285 -17.0078 -16.9887 -16.9368 -16.8975
   -16.8599 -16.8514  -2.9369   1.2403   4.8651   5.1582   8.5037   9.6501
    14.3422  14.6942

     occupation numbers 
     1.0000   1.0000   1.0000   1.0000   1.0000   1.0000   1.0000   1.0000
     1.0000   1.0000   1.0000   1.0000   1.0000   1.0000   0.0000   0.0000
     0.0000   0.0000

          k = 0.5439 0.0000 0.0000 (  1651 PWs)   bands (ev):

   -17.1420 -17.1396 -17.0959 -17.0259 -17.0163 -16.9714 -16.9482 -16.8991
   -16.8556 -16.8541  -2.5311   0.6423   4.9434   4.9471   8.1840   9.0578
    15.3499  15.4220

     occupation numbers 
     1.0000   1.0000   1.0000   1.0000   1.0000   1.0000   1.0000   1.0000
     1.0000   1.0000   1.0000   1.0000   1.0000   1.0000   0.0001   0.0000
     0.0000   0.0000

          k = 0.6005 0.0544-0.0544 (  1650 PWs)   bands (ev):

   -17.1447 -17.1412 -17.0857 -17.0373 -17.0040 -16.9612 -16.9585 -16.9114
   -16.8529 -16.8497  -2.0257  -0.0089   4.6140   4.8616   8.3836   8.9928
    15.1641  15.7357

     occupation numbers 
     1.0000   1.0000   1.0000   1.0000   1.0000   1.0000   1.0000   1.0000
     1.0000   1.0000   1.0000   1.0000   1.0000   1.0000   0.0000   0.0000
     0.0000   0.0000

          k =-0.0783-0.5983 0.5983 (  1650 PWs)   bands (ev):

   -17.1523 -17.1418 -17.0709 -17.0382 -16.9925 -16.9731 -16.9564 -16.9271
   -16.8514 -16.8421  -1.4972  -0.5833   4.0520   4.9108   8.5257   9.8331
    14.8443  15.5477

     occupation numbers 
     1.0000   1.0000   1.0000   1.0000   1.0000   1.0000   1.0000   1.0000
     1.0000   1.0000   1.0000   1.0000   1.0000   1.0000   0.0000   0.0000
     0.0000   0.0000

          k =-0.0218-0.5439 0.5439 (  1643 PWs)   bands (ev):

   -17.1588 -17.1421 -17.0647 -17.0217 -16.9914 -16.9767 -16.9712 -16.9320
   -16.8511 -16.8362  -1.4702  -0.5816   3.6029   5.0899   8.6812  11.1770
    14.4218  15.0610

     occupation numbers 
     1.0000   1.0000   1.0000   1.0000   1.0000   1.0000   1.0000   1.0000
     1.0000   1.0000   1.0000   1.0000   1.0000   1.0000   0.0000   0.0000
     0.0000   0.0000

          k = 0.0348-0.4895 0.4895 (  1647 PWs)   bands (ev):

   -17.1618 -17.1414 -17.0648 -17.0058 -17.0026 -16.9889 -16.9641 -16.9310
   -16.8524 -16.8341  -1.9407  -0.0943   3.4885   5.3845   8.9404  12.6898
    13.5492  14.1349

     occupation numbers 
     1.0000   1.0000   1.0000   1.0000   1.0000   1.0000   1.0000   1.0000
     1.0000   1.0000   1.0000   1.0000   1.0000   1.0000   0.0000   0.0000
     0.0000   0.0000

          k = 0.0914-0.4351 0.4351 (  1651 PWs)   bands (ev):

   -17.1606 -17.1392 -17.0675 -17.0245 -17.0195 -16.9641 -16.9516 -16.9296
   -16.8554 -16.8365  -2.4067   0.2857   3.8444   5.7634   9.2103  12.2567
    12.9696  14.2476

     occupation numbers 
     1.0000   1.0000   1.0000   1.0000   1.0000   1.0000   1.0000   1.0000
     1.0000   1.0000   1.0000   1.0000   1.0000   1.0000   0.0000   0.0000
     0.0000   0.0000

          k = 0.1479-0.3807 0.3807 (  1651 PWs)   bands (ev):

   -17.1561 -17.1353 -17.0749 -17.0417 -17.0331 -16.9411 -16.9375 -16.9275
   -16.8604 -16.8425  -2.8056   0.5318   4.6363   6.1621   9.1413  11.4784
    12.0130  14.6269

     occupation numbers 
     1.0000   1.0000   1.0000   1.0000   1.0000   1.0000   1.0000   1.0000
     1.0000   1.0000   1.0000   1.0000   1.0000   1.0000   0.0000   0.0000
     0.0000   0.0000

          k = 0.2045-0.3264 0.3264 (  1647 PWs)   bands (ev):

   -17.1508 -17.1306 -17.0853 -17.0499 -17.0436 -16.9296 -16.9262 -16.9202
   -16.8661 -16.8492  -3.1162   0.7520   5.6824   6.4599   8.4222  11.3192
    11.5139  14.6926

     occupation numbers 
     1.0000   1.0000   1.0000   1.0000   1.0000   1.0000   1.0000   1.0000
     1.0000   1.0000   1.0000   1.0000   1.0000   1.0000   0.0000   0.0000
     0.0000   0.0000

          k = 0.3133-0.3264 0.3264 (  1648 PWs)   bands (ev):

   -17.1495 -17.1293 -17.0879 -17.0528 -17.0453 -16.9257 -16.9232 -16.9186
   -16.8683 -16.8509  -2.9790   0.3982   6.3922   6.4160   7.7371  11.2080
    11.5278  14.6740

     occupation numbers 
     1.0000   1.0000   1.0000   1.0000   1.0000   1.0000   1.0000   1.0000
     1.0000   1.0000   1.0000   1.0000   1.0000   1.0000   0.1034   0.0000
     0.0000   0.0000

          k = 0.3699-0.2720 0.2720 (  1637 PWs)   bands (ev):

   -17.1519 -17.1310 -17.0837 -17.0506 -17.0417 -16.9349 -16.9218 -16.9213
   -16.8666 -16.8477  -3.0065   0.5592   5.7645   6.2307   8.4671  11.2192
    11.6542  14.7927

     occupation numbers 
     1.0000   1.0000   1.0000   1.0000   1.0000   1.0000   1.0000   1.0000
     1.0000   1.0000   1.0000   1.0000   1.0000   1.0000   0.0000   0.0000
     0.0000   0.0000

          k = 0.4264-0.2176 0.2176 (  1635 PWs)   bands (ev):

   -17.1559 -17.1340 -17.0796 -17.0430 -17.0287 -16.9577 -16.9270 -16.9187
   -16.8634 -16.8425  -2.9383   0.7496   4.8997   5.8636   9.1770  11.2967
    12.4289  13.6244

     occupation numbers 
     1.0000   1.0000   1.0000   1.0000   1.0000   1.0000   1.0000   1.0000
     1.0000   1.0000   1.0000   1.0000   1.0000   1.0000   0.0000   0.0000
     0.0000   0.0000

          k = 0.4830-0.1632 0.1632 (  1644 PWs)   bands (ev):

   -17.1571 -17.1369 -17.0797 -17.0321 -17.0075 -16.9851 -16.9357 -16.9152
   -16.8596 -16.8404  -2.7651   0.8137   4.3408   5.4610   9.0694  11.5208
    12.7994  13.5168

     occupation numbers 
     1.0000   1.0000   1.0000   1.0000   1.0000   1.0000   1.0000   1.0000
     1.0000   1.0000   1.0000   1.0000   1.0000   1.0000   0.0000   0.0000
     0.0000   0.0000

          k = 0.5396-0.1088 0.1088 (  1648 PWs)   bands (ev):

   -17.1540 -17.1391 -17.0816 -17.0201 -17.0122 -16.9834 -16.9463 -16.9125
   -16.8561 -16.8426  -2.4814   0.5736   4.2752   5.1156   8.7011  10.2136
    14.0881  14.7474

     occupation numbers 
     1.0000   1.0000   1.0000   1.0000   1.0000   1.0000   1.0000   1.0000
     1.0000   1.0000   1.0000   1.0000   1.0000   1.0000   0.0000   0.0000
     0.0000   0.0000

          k = 0.5961-0.0544 0.0544 (  1656 PWs)   bands (ev):

   -17.1480 -17.1409 -17.0824 -17.0367 -17.0064 -16.9616 -16.9577 -16.9127
   -16.8532 -16.8472  -2.0879   0.0680   4.5651   4.8737   8.3752   9.0835
    15.5228  15.9103

     occupation numbers 
     1.0000   1.0000   1.0000   1.0000   1.0000   1.0000   1.0000   1.0000
     1.0000   1.0000   1.0000   1.0000   1.0000   1.0000   0.0000   0.0000
     0.0000   0.0000

          k = 0.6527 0.0000 0.0000 (  1646 PWs)   bands (ev):

   -17.1436 -17.1429 -17.0775 -17.0536 -16.9935 -16.9704 -16.9442 -16.9195
   -16.8506 -16.8502  -1.5947  -0.5292   4.7549   4.7564   8.2410   8.5360
    16.3592  16.4110

     occupation numbers 
     1.0000   1.0000   1.0000   1.0000   1.0000   1.0000   1.0000   1.0000
     1.0000   1.0000   1.0000   1.0000   1.0000   1.0000   0.0000   0.0000
     0.0000   0.0000

          k =-0.0261-0.6527 0.6527 (  1645 PWs)   bands (ev):

   -17.1476 -17.1424 -17.0660 -17.0596 -16.9835 -16.9808 -16.9374 -16.9315
   -16.8507 -16.8463  -1.1248  -1.0106   4.4822   4.7738   8.3952   8.7917
    16.0252  16.4573

     occupation numbers 
     1.0000   1.0000   1.0000   1.0000   1.0000   1.0000   1.0000   1.0000
     1.0000   1.0000   1.0000   1.0000   1.0000   1.0000   0.0000   0.0000
     0.0000   0.0000

          k = 0.0305-0.5983 0.5983 (  1649 PWs)   bands (ev):

   -17.1544 -17.1419 -17.0684 -17.0373 -16.9969 -16.9689 -16.9590 -16.9272
   -16.8515 -16.8405  -1.6252  -0.4422   4.0193   4.9230   8.5280   9.8995
    15.1522  15.7450

     occupation numbers 
     1.0000   1.0000   1.0000   1.0000   1.0000   1.0000   1.0000   1.0000
     1.0000   1.0000   1.0000   1.0000   1.0000   1.0000   0.0000   0.0000
     0.0000   0.0000

          k = 0.0870-0.5439 0.5439 (  1642 PWs)   bands (ev):

   -17.1594 -17.1408 -17.0699 -17.0127 -17.0068 -16.9862 -16.9561 -16.9251
   -16.8534 -16.8365  -2.0571   0.0361   3.7772   5.1933   8.7953  11.3370
    13.8160  14.5203

     occupation numbers 
     1.0000   1.0000   1.0000   1.0000   1.0000   1.0000   1.0000   1.0000
     1.0000   1.0000   1.0000   1.0000   1.0000   1.0000   0.0000   0.0000
     0.0000   0.0000

          k = 0.1436-0.4895 0.4895 (  1641 PWs)   bands (ev):

   -17.1603 -17.1387 -17.0712 -17.0252 -17.0125 -16.9778 -16.9445 -16.9248
   -16.8566 -16.8366  -2.4056   0.2802   4.0056   5.5581   9.1073  12.1885
    13.1825  13.3301

     occupation numbers 
     1.0000   1.0000   1.0000   1.0000   1.0000   1.0000   1.0000   1.0000
     1.0000   1.0000   1.0000   1.0000   1.0000   1.0000   0.0000   0.0000
     0.0000   0.0000

          k = 0.2002-0.4351 0.4351 (  1646 PWs)   bands (ev):

   -17.1570 -17.1354 -17.0751 -17.0388 -17.0322 -16.9503 -16.9338 -16.9251
   -16.8608 -16.8412  -2.6741   0.3223   4.7036   5.9623   9.1226  11.3741
    12.2310  14.6734

     occupation numbers 
     1.0000   1.0000   1.0000   1.0000   1.0000   1.0000   1.0000   1.0000
     1.0000   1.0000   1.0000   1.0000   1.0000   1.0000   0.0000   0.0000
     0.0000   0.0000

          k = 0.2567-0.3807 0.3807 (  1643 PWs)   bands (ev):

   -17.1520 -17.1314 -17.0833 -17.0489 -17.0422 -16.9306 -16.9251 -16.9239
   -16.8656 -16.8477  -2.8658   0.3258   5.6707   6.2991   8.4005  11.2849
    11.5516  14.9199

     occupation numbers 
     1.0000   1.0000   1.0000   1.0000   1.0000   1.0000   1.0000   1.0000
     1.0000   1.0000   1.0000   1.0000   1.0000   1.0000   0.0000   0.0000
     0.0000   0.0000

          k = 0.0044 0.1088-0.0000 (  1650 PWs)   bands (ev):

   -17.1340 -17.1150 -17.0989 -17.0780 -17.0700 -16.9206 -16.8936 -16.8923
   -16.8889 -16.8721  -4.6731   5.9311   7.2312   7.2450   8.7378   9.7886
    10.6756  10.6794

     occupation numbers 
     1.0000   1.0000   1.0000   1.0000   1.0000   1.0000   1.0000   1.0000
     1.0000   1.0000   1.0000   1.0000   1.0763   1.0706   0.0000   0.0000
     0.0000   0.0000

          k = 0.0609 0.1632-0.0544 (  1645 PWs)   bands (ev):

   -17.1333 -17.1178 -17.1070 -17.0706 -17.0584 -16.9296 -16.9026 -16.8895
   -16.8826 -16.8701  -4.5051   4.9273   6.8599   6.9975   8.9516   9.7598
    11.0977  11.4678

     occupation numbers 
     1.0000   1.0000   1.0000   1.0000   1.0000   1.0000   1.0000   1.0000
     1.0000   1.0000   1.0000   1.0000   1.0069   1.0318   0.0000   0.0000
     0.0000   0.0000

          k = 0.1175 0.2176-0.1088 (  1651 PWs)   bands (ev):

   -17.1337 -17.1203 -17.1118 -17.0603 -17.0475 -16.9379 -16.9129 -16.8910
   -16.8765 -16.8666  -4.2006   3.6530   6.5103   6.6438   8.7820  10.1632
    11.5544  12.3341

     occupation numbers 
     1.0000   1.0000   1.0000   1.0000   1.0000   1.0000   1.0000   1.0000
     1.0000   1.0000   1.0000   1.0000   1.0000   1.0002   0.0000   0.0000
     0.0000   0.0000

          k = 0.1741 0.2720-0.1632 (  1652 PWs)   bands (ev):

   -17.1357 -17.1236 -17.1099 -17.0506 -17.0396 -16.9430 -16.9219 -16.8965
   -16.8719 -16.8624  -3.7739   2.3942   6.2183   6.2848   8.5182  10.6196
    11.7900  13.0754

     occupation numbers 
     1.0000   1.0000   1.0000   1.0000   1.0000   1.0000   1.0000   1.0000
     1.0000   1.0000   1.0000   1.0000   1.0000   1.0000   0.0000   0.0000
     0.0000   0.0000

          k = 0.2306 0.3264-0.2176 (  1650 PWs)   bands (ev):

   -17.1382 -17.1261 -17.1048 -17.0433 -17.0358 -16.9438 -16.9290 -16.9034
   -16.8689 -16.8587  -3.2633   1.2716   5.9075   6.1052   8.2977  10.8603
    11.7778  13.8969

     occupation numbers 
     1.0000   1.0000   1.0000   1.0000   1.0000   1.0000   1.0000   1.0000
     1.0000   1.0000   1.0000   1.0000   1.0000   1.0000   0.0000   0.0000
     0.0000   0.0000

          k = 0.2872 0.3807-0.2720 (  1649 PWs)   bands (ev):

   -17.1405 -17.1272 -17.0997 -17.0400 -17.0341 -16.9413 -16.9338 -16.9099
   -16.8676 -16.8557  -2.7818   0.4332   5.6664   6.0573   8.1603  10.9599
    11.6578  14.5634

     occupation numbers 
     1.0000   1.0000   1.0000   1.0000   1.0000   1.0000   1.0000   1.0000
     1.0000   1.0000   1.0000   1.0000   1.0000   1.0000   0.0001   0.0000
     0.0000   0.0000

          k =-0.3916-0.2720 0.3807 (  1642 PWs)   bands (ev):

   -17.1424 -17.1271 -17.0968 -17.0414 -17.0325 -16.9403 -16.9333 -16.9142
   -16.8677 -16.8538  -2.6180   0.1827   5.5288   6.1218   8.1194  11.0554
    11.5428  14.7367

     occupation numbers 
     1.0000   1.0000   1.0000   1.0000   1.0000   1.0000   1.0000   1.0000
     1.0000   1.0000   1.0000   1.0000   1.0000   1.0000   0.0003   0.0000
     0.0000   0.0000

          k =-0.3351-0.2176 0.3264 (  1655 PWs)   bands (ev):

   -17.1435 -17.1258 -17.0971 -17.0446 -17.0330 -16.9410 -16.9295 -16.9136
   -16.8693 -16.8532  -2.9404   0.6913   5.5065   6.2905   8.1777  11.1804
    11.4695  14.7181

     occupation numbers 
     1.0000   1.0000   1.0000   1.0000   1.0000   1.0000   1.0000   1.0000
     1.0000   1.0000   1.0000   1.0000   1.0000   1.0000   0.0001   0.0000
     0.0000   0.0000

          k =-0.2785-0.1632 0.2720 (  1652 PWs)   bands (ev):

   -17.1434 -17.1234 -17.1004 -17.0488 -17.0373 -16.9388 -16.9272 -16.9072
   -16.8724 -16.8542  -3.4547   1.6558   5.6094   6.5502   8.3288  11.2233
    11.4450  14.0027

     occupation numbers 
     1.0000   1.0000   1.0000   1.0000   1.0000   1.0000   1.0000   1.0000
     1.0000   1.0000   1.0000   1.0000   1.0000   1.0000   0.0000   0.0000
     0.0000   0.0000

          k =-0.2219-0.1088 0.2176 (  1646 PWs)   bands (ev):

   -17.1418 -17.1200 -17.1044 -17.0549 -17.0456 -16.9331 -16.9239 -16.8983
   -16.8772 -16.8572  -3.9419   2.8310   5.8500   6.8779   8.5469  11.0174
    11.3586  12.9314

     occupation numbers 
     1.0000   1.0000   1.0000   1.0000   1.0000   1.0000   1.0000   1.0000
     1.0000   1.0000   1.0000   1.0000   1.0000   1.0087   0.0000   0.0000
     0.0000   0.0000

          k =-0.1654-0.0544 0.1632 (  1651 PWs)   bands (ev):

   -17.1388 -17.1177 -17.1049 -17.0632 -17.0565 -16.9253 -16.9181 -16.8897
   -16.8834 -16.8623  -4.3266   4.0777   6.2527   7.2259   8.7441  10.6370
    10.9352  12.0221

     occupation numbers 
     1.0000   1.0000   1.0000   1.0000   1.0000   1.0000   1.0000   1.0000
     1.0000   1.0000   1.0000   1.0000   1.0000   1.0780   0.0000   0.0000
     0.0000   0.0000

          k =-0.1088 0.0000 0.1088 (  1649 PWs)   bands (ev):

   -17.1359 -17.1170 -17.0992 -17.0723 -17.0680 -16.9178 -16.9098 -16.8905
   -16.8829 -16.8689  -4.5825   5.2164   6.8679   7.4873   8.6638  10.3511
    10.4114  11.1990

     occupation numbers 
     1.0000   1.0000   1.0000   1.0000   1.0000   1.0000   1.0000   1.0000
     1.0000   1.0000   1.0000   1.0000   1.0076   0.6311   0.0000   0.0000
     0.0000   0.0000

          k = 0.0000 0.0000 0.1088 (  1655 PWs)   bands (ev):

   -17.1343 -17.1164 -17.0957 -17.0773 -17.0728 -16.9116 -16.9109 -16.8903
   -16.8780 -16.8764  -4.6735   5.9158   7.1757   7.3162   8.7354   9.8874
    10.3992  10.8678

     occupation numbers 
     1.0000   1.0000   1.0000   1.0000   1.0000   1.0000   1.0000   1.0000
     1.0000   1.0000   1.0000   1.0000   1.0828   1.0080   0.0000   0.0000
     0.0000   0.0000

          k = 0.1131 0.1088-0.0000 (  1654 PWs)   bands (ev):

   -17.1309 -17.1172 -17.1078 -17.0722 -17.0618 -16.9260 -16.9019 -16.8906
   -16.8791 -16.8750  -4.5710   5.2589   6.9332   7.4807   8.4572  10.0599
    10.4387  11.4352

     occupation numbers 
     1.0000   1.0000   1.0000   1.0000   1.0000   1.0000   1.0000   1.0000
     1.0000   1.0000   1.0000   1.0000   1.0167   0.6494   0.0000   0.0000
     0.0000   0.0000

          k = 0.1697 0.1632-0.0544 (  1658 PWs)   bands (ev):

   -17.1288 -17.1205 -17.1152 -17.0629 -17.0502 -16.9345 -16.9125 -16.8875
   -16.8740 -16.8737  -4.3094   4.0541   6.3901   7.2399   8.5478  10.4018
    10.7943  12.2833

     occupation numbers 
     1.0000   1.0000   1.0000   1.0000   1.0000   1.0000   1.0000   1.0000
     1.0000   1.0000   1.0000   1.0000   1.0000   1.0729   0.0000   0.0000
     0.0000   0.0000

          k = 0.2263 0.2176-0.1088 (  1652 PWs)   bands (ev):

   -17.1320 -17.1202 -17.1168 -17.0530 -17.0410 -16.9405 -16.9220 -16.8927
   -16.8700 -16.8680  -3.9196   2.7869   5.9821   6.9017   8.3892  10.7996
    11.3131  12.9405

     occupation numbers 
     1.0000   1.0000   1.0000   1.0000   1.0000   1.0000   1.0000   1.0000
     1.0000   1.0000   1.0000   1.0000   1.0000   1.0116   0.0000   0.0000
     0.0000   0.0000

          k = 0.2828 0.2720-0.1632 (  1655 PWs)   bands (ev):

   -17.1369 -17.1227 -17.1101 -17.0444 -17.0364 -16.9422 -16.9294 -16.9010
   -16.8683 -16.8614  -3.4290   1.6119   5.7018   6.5767   8.2133  11.0604
    11.4763  13.7933

     occupation numbers 
     1.0000   1.0000   1.0000   1.0000   1.0000   1.0000   1.0000   1.0000
     1.0000   1.0000   1.0000   1.0000   1.0000   1.0001   0.0000   0.0000
     0.0000   0.0000

          k = 0.3394 0.3264-0.2176 (  1647 PWs)   bands (ev):

   -17.1414 -17.1231 -17.1038 -17.0379 -17.0364 -16.9398 -16.9348 -16.9089
   -16.8686 -16.8558  -2.9167   0.6590   5.5460   6.3138   8.1070  11.1975
    11.3787  14.6135

     occupation numbers 
     1.0000   1.0000   1.0000   1.0000   1.0000   1.0000   1.0000   1.0000
     1.0000   1.0000   1.0000   1.0000   1.0000   1.0000   0.0004   0.0000
     0.0000   0.0000

          k =-0.3394-0.3264 0.4351 (  1639 PWs)   bands (ev):

   -17.1448 -17.1220 -17.0999 -17.0391 -17.0336 -16.9392 -16.9352 -16.9134
   -16.8704 -16.8518  -2.6103   0.1780   5.5115   6.1369   8.0952  11.2556
    11.3112  14.8038

     occupation numbers 
     1.0000   1.0000   1.0000   1.0000   1.0000   1.0000   1.0000   1.0000
     1.0000   1.0000   1.0000   1.0000   1.0000   1.0000   0.0005   0.0000
     0.0000   0.0000

          k =-0.2828-0.2720 0.3807 (  1642 PWs)   bands (ev):

   -17.1469 -17.1200 -17.0996 -17.0430 -17.0320 -16.9426 -16.9303 -16.9126
   -16.8731 -16.8499  -2.7948   0.4606   5.5950   6.0595   8.1830  11.1840
    11.4512  14.7680

     occupation numbers 
     1.0000   1.0000   1.0000   1.0000   1.0000   1.0000   1.0000   1.0000
     1.0000   1.0000   1.0000   1.0000   1.0000   1.0000   0.0001   0.0000
     0.0000   0.0000

          k =-0.2263-0.2176 0.3264 (  1650 PWs)   bands (ev):

   -17.1472 -17.1174 -17.1028 -17.0474 -17.0345 -16.9432 -16.9258 -16.9071
   -16.8764 -16.8503  -3.2819   1.3142   5.7925   6.0898   8.3649  11.1381
    11.5879  14.2532

     occupation numbers 
     1.0000   1.0000   1.0000   1.0000   1.0000   1.0000   1.0000   1.0000
     1.0000   1.0000   1.0000   1.0000   1.0000   1.0000   0.0000   0.0000
     0.0000   0.0000

          k =-0.1697-0.1632 0.2720 (  1647 PWs)   bands (ev):

   -17.1453 -17.1137 -17.1081 -17.0532 -17.0415 -16.9394 -16.9213 -16.8990
   -16.8804 -16.8534  -3.7904   2.4395   6.0988   6.2304   8.6213  10.9923
    11.6098  13.2302

     occupation numbers 
     1.0000   1.0000   1.0000   1.0000   1.0000   1.0000   1.0000   1.0000
     1.0000   1.0000   1.0000   1.0000   1.0000   1.0000   0.0000   0.0000
     0.0000   0.0000

          k =-0.1131-0.1088 0.2176 (  1640 PWs)   bands (ev):

   -17.1415 -17.1137 -17.1084 -17.0608 -17.0518 -16.9319 -16.9162 -16.8902
   -16.8850 -16.8591  -4.2123   3.6876   6.4761   6.5009   8.9010  10.5885
    11.3824  12.2572

     occupation numbers 
     1.0000   1.0000   1.0000   1.0000   1.0000   1.0000   1.0000   1.0000
     1.0000   1.0000   1.0000   1.0000   1.0000   1.0000   0.0000   0.0000
     0.0000   0.0000

          k =-0.0566-0.0544 0.1632 (  1646 PWs)   bands (ev):

   -17.1371 -17.1171 -17.1016 -17.0700 -17.0631 -16.9222 -16.9113 -16.8895
   -16.8825 -16.8672  -4.5113   4.9299   6.8082   6.9505   9.0612  10.0413
    10.9193  11.4224

     occupation numbers 
     1.0000   1.0000   1.0000   1.0000   1.0000   1.0000   1.0000   1.0000
     1.0000   1.0000   1.0000   1.0000   1.0033   1.0202   0.0000   0.0000
     0.0000   0.0000

          k = 0.0522-0.0544 0.1632 (  1640 PWs)   bands (ev):

   -17.1372 -17.1195 -17.0974 -17.0720 -17.0639 -16.9217 -16.9083 -16.8969
   -16.8740 -16.8706  -4.5172   4.8494   6.9551   6.9983   9.0661   9.8175
    11.2025  11.3128

     occupation numbers 
     1.0000   1.0000   1.0000   1.0000   1.0000   1.0000   1.0000   1.0000
     1.0000   1.0000   1.0000   1.0000   1.0211   1.0320   0.0000   0.0000
     0.0000   0.0000

          k = 0.2219 0.1088-0.0000 (  1649 PWs)   bands (ev):

   -17.1281 -17.1229 -17.1151 -17.0633 -17.0458 -16.9416 -16.9093 -16.8823
   -16.8780 -16.8729  -4.2880   4.0898   6.2340   6.8664   9.2372   9.6797
    11.3300  12.2629

     occupation numbers 
     1.0000   1.0000   1.0000   1.0000   1.0000   1.0000   1.0000   1.0000
     1.0000   1.0000   1.0000   1.0000   1.0000   1.0075   0.0000   0.0000
     0.0000   0.0000

          k = 0.2785 0.1632-0.0544 (  1658 PWs)   bands (ev):

   -17.1308 -17.1230 -17.1174 -17.0540 -17.0345 -16.9510 -16.9187 -16.8867
   -16.8719 -16.8683  -3.9382   3.0060   5.6595   6.6244   9.1898  10.1052
    11.7837  12.5103

     occupation numbers 
     1.0000   1.0000   1.0000   1.0000   1.0000   1.0000   1.0000   1.0000
     1.0000   1.0000   1.0000   1.0000   1.0000   1.0001   0.0000   0.0000
     0.0000   0.0000

          k = 0.3351 0.2176-0.1088 (  1653 PWs)   bands (ev):

   -17.1381 -17.1258 -17.1083 -17.0449 -17.0275 -16.9556 -16.9272 -16.8983
   -16.8669 -16.8605  -3.4755   1.8873   5.2586   6.3209   9.0014  10.6280
    12.0387  12.8110

     occupation numbers 
     1.0000   1.0000   1.0000   1.0000   1.0000   1.0000   1.0000   1.0000
     1.0000   1.0000   1.0000   1.0000   1.0000   1.0000   0.0000   0.0000
     0.0000   0.0000

          k = 0.3916 0.2720-0.1632 (  1651 PWs)   bands (ev):

   -17.1444 -17.1273 -17.0986 -17.0368 -17.0266 -16.9539 -16.9346 -16.9101
   -16.8653 -16.8529  -2.9542   0.8938   4.9999   6.0717   8.8470  10.8788
    12.0061  13.6517

     occupation numbers 
     1.0000   1.0000   1.0000   1.0000   1.0000   1.0000   1.0000   1.0000
     1.0000   1.0000   1.0000   1.0000   1.0000   1.0000   0.0000   0.0000
     0.0000   0.0000

          k =-0.2872-0.3807 0.4895 (  1644 PWs)   bands (ev):

   -17.1492 -17.1273 -17.0913 -17.0306 -17.0300 -16.9470 -16.9421 -16.9185
   -16.8655 -16.8475  -2.5404   0.2403   4.8606   5.9298   8.7746  10.9453
    11.9591  14.6659

     occupation numbers 
     1.0000   1.0000   1.0000   1.0000   1.0000   1.0000   1.0000   1.0000
     1.0000   1.0000   1.0000   1.0000   1.0000   1.0000   0.0000   0.0000
     0.0000   0.0000

          k =-0.2306-0.3264 0.4351 (  1644 PWs)   bands (ev):

   -17.1518 -17.1262 -17.0886 -17.0367 -17.0256 -16.9494 -16.9374 -16.9212
   -16.8673 -16.8448  -2.5635   0.2744   4.8305   5.9179   8.7974  10.9894
    11.9660  14.9539

     occupation numbers 
     1.0000   1.0000   1.0000   1.0000   1.0000   1.0000   1.0000   1.0000
     1.0000   1.0000   1.0000   1.0000   1.0000   1.0000   0.0000   0.0000
     0.0000   0.0000

          k =-0.1741-0.2720 0.3807 (  1645 PWs)   bands (ev):

   -17.1522 -17.1242 -17.0910 -17.0433 -17.0257 -16.9529 -16.9286 -16.9172
   -16.8705 -16.8451  -2.9982   0.9683   4.9143   6.0381   8.9135  11.0363
    12.0132  14.0858

     occupation numbers 
     1.0000   1.0000   1.0000   1.0000   1.0000   1.0000   1.0000   1.0000
     1.0000   1.0000   1.0000   1.0000   1.0000   1.0000   0.0000   0.0000
     0.0000   0.0000

          k =-0.1175-0.2176 0.3264 (  1647 PWs)   bands (ev):

   -17.1500 -17.1214 -17.0969 -17.0500 -17.0315 -16.9505 -16.9230 -16.9066
   -16.8750 -16.8484  -3.5181   1.9706   5.1332   6.2735   9.1041  10.9568
    12.0218  13.0799

     occupation numbers 
     1.0000   1.0000   1.0000   1.0000   1.0000   1.0000   1.0000   1.0000
     1.0000   1.0000   1.0000   1.0000   1.0000   1.0000   0.0000   0.0000
     0.0000   0.0000

          k =-0.0609-0.1632 0.2720 (  1643 PWs)   bands (ev):

   -17.1458 -17.1189 -17.1024 -17.0573 -17.0417 -16.9433 -16.9174 -16.8956
   -16.8799 -16.8543  -3.9723   3.0666   5.5282   6.5852   9.3164  10.5228
    11.8347  12.4834

     occupation numbers 
     1.0000   1.0000   1.0000   1.0000   1.0000   1.0000   1.0000   1.0000
     1.0000   1.0000   1.0000   1.0000   1.0000   1.0001   0.0000   0.0000
     0.0000   0.0000

          k =-0.0044-0.1088 0.2176 (  1646 PWs)   bands (ev):

   -17.1406 -17.1196 -17.1017 -17.0654 -17.0534 -16.9332 -16.9108 -16.8939
   -16.8786 -16.8624  -4.3114   4.0816   6.1558   6.8826   9.4151   9.9187
    11.4577  12.0517

     occupation numbers 
     1.0000   1.0000   1.0000   1.0000   1.0000   1.0000   1.0000   1.0000
     1.0000   1.0000   1.0000   1.0000   1.0000   1.0092   0.0000   0.0000
     0.0000   0.0000

          k = 0.1044-0.1088 0.2176 (  1632 PWs)   bands (ev):

   -17.1412 -17.1235 -17.0969 -17.0641 -17.0553 -16.9298 -16.9079 -16.9056
   -16.8707 -16.8638  -4.2369   3.5650   6.6807   6.6885   8.9548  10.1463
    11.7170  12.2023

     occupation numbers 
     1.0000   1.0000   1.0000   1.0000   1.0000   1.0000   1.0000   1.0000
     1.0000   1.0000   1.0000   1.0000   1.0004   1.0005   0.0000   0.0000
     0.0000   0.0000

          k = 0.1610-0.0544 0.1632 (  1640 PWs)   bands (ev):

   -17.1406 -17.1211 -17.0972 -17.0662 -17.0593 -16.9222 -16.9165 -16.8971
   -16.8774 -16.8622  -4.3443   3.9943   6.3887   7.2840   8.8074  10.6185
    10.9029  12.0524

     occupation numbers 
     1.0000   1.0000   1.0000   1.0000   1.0000   1.0000   1.0000   1.0000
     1.0000   1.0000   1.0000   1.0000   1.0000   1.0437   0.0000   0.0000
     0.0000   0.0000

          k = 0.2176-0.0000 0.1088 (  1648 PWs)   bands (ev):

   -17.1389 -17.1207 -17.1034 -17.0658 -17.0508 -16.9372 -16.9077 -16.8896
   -16.8827 -16.8627  -4.3108   4.0906   6.1514   6.8893   9.4152   9.8648
    11.5188  12.0198

     occupation numbers 
     1.0000   1.0000   1.0000   1.0000   1.0000   1.0000   1.0000   1.0000
     1.0000   1.0000   1.0000   1.0000   1.0000   1.0100   0.0000   0.0000
     0.0000   0.0000

          k = 0.3307 0.1088-0.0000 (  1648 PWs)   bands (ev):

   -17.1306 -17.1272 -17.1173 -17.0510 -17.0240 -16.9661 -16.9177 -16.8795
   -16.8712 -16.8707  -3.8285   2.8756   5.5509   6.0858   9.1852   9.9505
    12.4061  12.6329

     occupation numbers 
     1.0000   1.0000   1.0000   1.0000   1.0000   1.0000   1.0000   1.0000
     1.0000   1.0000   1.0000   1.0000   1.0000   1.0000   0.0000   0.0000
     0.0000   0.0000

          k = 0.3873 0.1632-0.0544 (  1653 PWs)   bands (ev):

   -17.1387 -17.1288 -17.1087 -17.0412 -17.0139 -16.9749 -16.9276 -16.8929
   -16.8658 -16.8599  -3.3990   1.9444   4.9984   5.8462   9.4007  10.1842
    12.1735  13.0699

     occupation numbers 
     1.0000   1.0000   1.0000   1.0000   1.0000   1.0000   1.0000   1.0000
     1.0000   1.0000   1.0000   1.0000   1.0000   1.0000   0.0000   0.0000
     0.0000   0.0000

          k = 0.4438 0.2176-0.1088 (  1651 PWs)   bands (ev):

   -17.1468 -17.1315 -17.0956 -17.0316 -17.0113 -16.9753 -16.9375 -16.9078
   -16.8622 -16.8502  -2.8852   1.0202   4.5699   5.6302   9.3547  10.7937
    12.2057  13.2414

     occupation numbers 
     1.0000   1.0000   1.0000   1.0000   1.0000   1.0000   1.0000   1.0000
     1.0000   1.0000   1.0000   1.0000   1.0000   1.0000   0.0000   0.0000
     0.0000   0.0000

          k =-0.2350-0.4351 0.5439 (  1646 PWs)   bands (ev):

   -17.1531 -17.1330 -17.0839 -17.0229 -17.0158 -16.9682 -16.9477 -16.9203
   -16.8602 -16.8431  -2.4014   0.2891   4.2658   5.5380   9.3129  11.0201
    12.7601  13.4935

     occupation numbers 
     1.0000   1.0000   1.0000   1.0000   1.0000   1.0000   1.0000   1.0000
     1.0000   1.0000   1.0000   1.0000   1.0000   1.0000   0.0000   0.0000
     0.0000   0.0000

          k =-0.1784-0.3807 0.4895 (  1641 PWs)   bands (ev):

   -17.1567 -17.1334 -17.0769 -17.0249 -17.0152 -16.9607 -16.9535 -16.9271
   -16.8599 -16.8395  -2.2613   0.0990   4.0974   5.5921   9.3523  11.0346
    12.8982  14.4831

     occupation numbers 
     1.0000   1.0000   1.0000   1.0000   1.0000   1.0000   1.0000   1.0000
     1.0000   1.0000   1.0000   1.0000   1.0000   1.0000   0.0000   0.0000
     0.0000   0.0000

          k =-0.1218-0.3264 0.4351 (  1648 PWs)   bands (ev):

   -17.1573 -17.1326 -17.0763 -17.0349 -17.0141 -16.9637 -16.9404 -16.9287
   -16.8614 -16.8396  -2.6198   0.6046   4.0934   5.7818   9.4670  11.0722
    12.8111  14.0068

     occupation numbers 
     1.0000   1.0000   1.0000   1.0000   1.0000   1.0000   1.0000   1.0000
     1.0000   1.0000   1.0000   1.0000   1.0000   1.0000   0.0000   0.0000
     0.0000   0.0000

          k =-0.0653-0.2720 0.3807 (  1649 PWs)   bands (ev):

   -17.1549 -17.1304 -17.0823 -17.0442 -17.0208 -16.9605 -16.9274 -16.9228
   -16.8649 -16.8432  -3.1401   1.4270   4.3065   6.0778   9.6221  11.0510
    12.5208  13.0333

     occupation numbers 
     1.0000   1.0000   1.0000   1.0000   1.0000   1.0000   1.0000   1.0000
     1.0000   1.0000   1.0000   1.0000   1.0000   1.0000   0.0000   0.0000
     0.0000   0.0000

          k =-0.0087-0.2176 0.3264 (  1642 PWs)   bands (ev):

   -17.1502 -17.1272 -17.0915 -17.0516 -17.0321 -16.9521 -16.9223 -16.9078
   -16.8698 -16.8494  -3.6188   2.2716   4.8167   6.4225   9.7325  10.6057
    12.3283  12.4398

     occupation numbers 
     1.0000   1.0000   1.0000   1.0000   1.0000   1.0000   1.0000   1.0000
     1.0000   1.0000   1.0000   1.0000   1.0000   1.0000   0.0000   0.0000
     0.0000   0.0000

          k = 0.0479-0.1632 0.2720 (  1643 PWs)   bands (ev):

   -17.1448 -17.1247 -17.0974 -17.0585 -17.0446 -16.9415 -16.9151 -16.9007
   -16.8723 -16.8573  -3.9920   2.9885   5.6618   6.6930   9.5052  10.1285
    11.9968  12.4264

     occupation numbers 
     1.0000   1.0000   1.0000   1.0000   1.0000   1.0000   1.0000   1.0000
     1.0000   1.0000   1.0000   1.0000   1.0000   1.0005   0.0000   0.0000
     0.0000   0.0000

          k = 0.1567-0.1632 0.2720 (  1636 PWs)   bands (ev):

   -17.1449 -17.1274 -17.0940 -17.0559 -17.0493 -16.9346 -16.9138 -16.9097
   -16.8678 -16.8581  -3.8500   2.3417   6.3522   6.4438   8.7384  10.5850
    11.9245  13.0031

     occupation numbers 
     1.0000   1.0000   1.0000   1.0000   1.0000   1.0000   1.0000   1.0000
     1.0000   1.0000   1.0000   1.0000   1.0000   1.0000   0.0000   0.0000
     0.0000   0.0000

          k = 0.2132-0.1088 0.2176 (  1633 PWs)   bands (ev):

   -17.1451 -17.1253 -17.0935 -17.0594 -17.0515 -16.9270 -16.9217 -16.9045
   -16.8723 -16.8565  -3.9916   2.7512   6.0411   6.9868   8.6834  10.9587
    11.4008  12.8752

     occupation numbers 
     1.0000   1.0000   1.0000   1.0000   1.0000   1.0000   1.0000   1.0000
     1.0000   1.0000   1.0000   1.0000   1.0000   1.0288   0.0000   0.0000
     0.0000   0.0000

          k = 0.2698-0.0544 0.1632 (  1639 PWs)   bands (ev):

   -17.1450 -17.1250 -17.0969 -17.0595 -17.0427 -16.9440 -16.9141 -16.8985
   -16.8756 -16.8555  -3.9961   3.0203   5.6215   6.6563   9.4033  10.4486
    11.8660  12.4627

     occupation numbers 
     1.0000   1.0000   1.0000   1.0000   1.0000   1.0000   1.0000   1.0000
     1.0000   1.0000   1.0000   1.0000   1.0000   1.0003   0.0000   0.0000
     0.0000   0.0000

          k = 0.3264 0.0000 0.1088 (  1648 PWs)   bands (ev):

   -17.1415 -17.1275 -17.1043 -17.0540 -17.0283 -16.9629 -16.9140 -16.8908
   -16.8733 -16.8589  -3.8626   2.9159   5.4807   6.0860   9.2821  10.1756
    12.3866  12.8070

     occupation numbers 
     1.0000   1.0000   1.0000   1.0000   1.0000   1.0000   1.0000   1.0000
     1.0000   1.0000   1.0000   1.0000   1.0000   1.0000   0.0000   0.0000
     0.0000   0.0000

          k = 0.4395 0.1088 0.0000 (  1653 PWs)   bands (ev):

   -17.1385 -17.1323 -17.1087 -17.0344 -16.9991 -16.9938 -16.9321 -16.8885
   -16.8639 -16.8598  -3.2002   1.6721   5.0072   5.4224   8.8396   9.8451
    12.8744  14.0258

     occupation numbers 
     1.0000   1.0000   1.0000   1.0000   1.0000   1.0000   1.0000   1.0000
     1.0000   1.0000   1.0000   1.0000   1.0000   1.0000   0.0000   0.0000
     0.0000   0.0000

          k = 0.4961 0.1632-0.0544 (  1654 PWs)   bands (ev):

   -17.1466 -17.1349 -17.0950 -17.0236 -17.0033 -16.9881 -16.9434 -16.9048
   -16.8592 -16.8499  -2.7052   0.8907   4.4841   5.2151   9.1432  10.1723
    12.5751  14.4056

     occupation numbers 
     1.0000   1.0000   1.0000   1.0000   1.0000   1.0000   1.0000   1.0000
     1.0000   1.0000   1.0000   1.0000   1.0000   1.0000   0.0000   0.0000
     0.0000   0.0000

          k =-0.1828-0.4895 0.5983 (  1648 PWs)   bands (ev):

   -17.1543 -17.1372 -17.0798 -17.0132 -17.0075 -16.9819 -16.9551 -16.9208
   -16.8562 -16.8413  -2.1837   0.1861   4.0086   5.1333   9.2226  11.1758
    12.3436  14.4041

     occupation numbers 
     1.0000   1.0000   1.0000   1.0000   1.0000   1.0000   1.0000   1.0000
     1.0000   1.0000   1.0000   1.0000   1.0000   1.0000   0.0000   0.0000
     0.0000   0.0000

          k =-0.1262-0.4351 0.5439 (  1649 PWs)   bands (ev):

   -17.1595 -17.1385 -17.0692 -17.0109 -17.0034 -16.9789 -16.9651 -16.9305
   -16.8547 -16.8361  -1.9015  -0.1528   3.6834   5.2086   9.3360  11.8142
    12.8510  14.2162

     occupation numbers 
     1.0000   1.0000   1.0000   1.0000   1.0000   1.0000   1.0000   1.0000
     1.0000   1.0000   1.0000   1.0000   1.0000   1.0000   0.0000   0.0000
     0.0000   0.0000

          k =-0.0696-0.3807 0.4895 (  1649 PWs)   bands (ev):

   -17.1611 -17.1386 -17.0658 -17.0207 -17.0028 -16.9753 -16.9603 -16.9329
   -16.8549 -16.8351  -2.1795   0.1834   3.5879   5.4252   9.5355  11.7730
    13.5582  13.9802

     occupation numbers 
     1.0000   1.0000   1.0000   1.0000   1.0000   1.0000   1.0000   1.0000
     1.0000   1.0000   1.0000   1.0000   1.0000   1.0000   0.0000   0.0000
     0.0000   0.0000

          k =-0.0131-0.3264 0.4351 (  1643 PWs)   bands (ev):

   -17.1590 -17.1372 -17.0696 -17.0349 -17.0124 -16.9676 -16.9418 -16.9311
   -16.8571 -16.8384  -2.6919   0.8117   3.8049   5.7519   9.7643  11.6401
    12.5537  13.6747

     occupation numbers 
     1.0000   1.0000   1.0000   1.0000   1.0000   1.0000   1.0000   1.0000
     1.0000   1.0000   1.0000   1.0000   1.0000   1.0000   0.0000   0.0000
     0.0000   0.0000

          k = 0.0435-0.2720 0.3807 (  1642 PWs)   bands (ev):

   -17.1541 -17.1341 -17.0800 -17.0451 -17.0256 -16.9571 -16.9268 -16.9223
   -16.8614 -16.8450  -3.1817   1.4042   4.4022   6.1279   9.8209  11.0313
    12.2535  13.0301

     occupation numbers 
     1.0000   1.0000   1.0000   1.0000   1.0000   1.0000   1.0000   1.0000
     1.0000   1.0000   1.0000   1.0000   1.0000   1.0000   0.0000   0.0000
     0.0000   0.0000

          k = 0.1001-0.2176 0.3264 (  1643 PWs)   bands (ev):

   -17.1484 -17.1302 -17.0905 -17.0514 -17.0389 -16.9458 -16.9205 -16.9095
   -16.8660 -16.8527  -3.5763   1.8975   5.3310   6.4215   9.3484  10.6184
    12.1830  12.8236

     occupation numbers 
     1.0000   1.0000   1.0000   1.0000   1.0000   1.0000   1.0000   1.0000
     1.0000   1.0000   1.0000   1.0000   1.0000   1.0000   0.0000   0.0000
     0.0000   0.0000

          k = 0.2089-0.2176 0.3264 (  1639 PWs)   bands (ev):

   -17.1477 -17.1305 -17.0899 -17.0490 -17.0469 -16.9359 -16.9208 -16.9130
   -16.8656 -16.8538  -3.3995   1.2861   6.0507   6.2917   8.5594  10.8699
    11.9283  13.7843

     occupation numbers 
     1.0000   1.0000   1.0000   1.0000   1.0000   1.0000   1.0000   1.0000
     1.0000   1.0000   1.0000   1.0000   1.0000   1.0000   0.0000   0.0000
     0.0000   0.0000

          k = 0.2654-0.1632 0.2720 (  1638 PWs)   bands (ev):

   -17.1486 -17.1286 -17.0891 -17.0536 -17.0463 -16.9295 -16.9251 -16.9125
   -16.8684 -16.8522  -3.5555   1.6302   5.8078   6.6942   8.5255  11.2114
    11.5473  13.8266

     occupation numbers 
     1.0000   1.0000   1.0000   1.0000   1.0000   1.0000   1.0000   1.0000
     1.0000   1.0000   1.0000   1.0000   1.0000   1.0005   0.0000   0.0000
     0.0000   0.0000

          k = 0.3220-0.1088 0.2176 (  1633 PWs)   bands (ev):

   -17.1503 -17.1290 -17.0890 -17.0531 -17.0367 -16.9478 -16.9196 -16.9095
   -16.8694 -16.8493  -3.5836   1.9376   5.2666   6.3978   9.2587  10.9334
    12.1030  12.9458

     occupation numbers 
     1.0000   1.0000   1.0000   1.0000   1.0000   1.0000   1.0000   1.0000
     1.0000   1.0000   1.0000   1.0000   1.0000   1.0000   0.0000   0.0000
     0.0000   0.0000

          k = 0.3786-0.0544 0.1632 (  1640 PWs)   bands (ev):

   -17.1490 -17.1314 -17.0935 -17.0470 -17.0207 -16.9700 -16.9211 -16.9029
   -16.8671 -16.8501  -3.4802   2.0292   4.9306   5.8745   9.4683  10.5917
    12.2675  13.2313

     occupation numbers 
     1.0000   1.0000   1.0000   1.0000   1.0000   1.0000   1.0000   1.0000
     1.0000   1.0000   1.0000   1.0000   1.0000   1.0000   0.0000   0.0000
     0.0000   0.0000

          k = 0.4351 0.0000 0.1088 (  1649 PWs)   bands (ev):

   -17.1439 -17.1350 -17.0998 -17.0372 -17.0037 -16.9904 -16.9290 -16.8949
   -16.8627 -16.8548  -3.2457   1.7369   4.9628   5.3984   8.9026   9.9963
    13.0405  14.1329

     occupation numbers 
     1.0000   1.0000   1.0000   1.0000   1.0000   1.0000   1.0000   1.0000
     1.0000   1.0000   1.0000   1.0000   1.0000   1.0000   0.0000   0.0000
     0.0000   0.0000

          k = 0.5483 0.1088-0.0000 (  1650 PWs)   bands (ev):

   -17.1451 -17.1378 -17.0934 -17.0215 -17.0141 -16.9732 -16.9512 -16.9045
   -16.8564 -16.8505  -2.4156   0.5029   4.6458   4.9299   8.6885   9.3362
    13.8696  15.3919

     occupation numbers 
     1.0000   1.0000   1.0000   1.0000   1.0000   1.0000   1.0000   1.0000
     1.0000   1.0000   1.0000   1.0000   1.0000   1.0000   0.0000   0.0000
     0.0000   0.0000

          k =-0.1305-0.5439 0.6527 (  1650 PWs)   bands (ev):

   -17.1525 -17.1400 -17.0769 -17.0266 -17.0025 -16.9665 -16.9636 -16.9220
   -16.8533 -16.8425  -1.8806  -0.1396   4.1554   4.8051   8.9765   9.9273
    13.5519  15.6154

     occupation numbers 
     1.0000   1.0000   1.0000   1.0000   1.0000   1.0000   1.0000   1.0000
     1.0000   1.0000   1.0000   1.0000   1.0000   1.0000   0.0000   0.0000
     0.0000   0.0000

          k =-0.0740-0.4895 0.5983 (  1646 PWs)   bands (ev):

   -17.1591 -17.1415 -17.0639 -17.0204 -16.9935 -16.9750 -16.9711 -16.9340
   -16.8515 -16.8360  -1.4984  -0.5397   3.6863   4.8756   9.1134  11.1908
    13.2598  15.0962

     occupation numbers 
     1.0000   1.0000   1.0000   1.0000   1.0000   1.0000   1.0000   1.0000
     1.0000   1.0000   1.0000   1.0000   1.0000   1.0000   0.0000   0.0000
     0.0000   0.0000

          k =-0.0174-0.4351 0.5439 (  1648 PWs)   bands (ev):

   -17.1624 -17.1420 -17.0603 -17.0068 -17.0006 -16.9836 -16.9707 -16.9354
   -16.8514 -16.8333  -1.7692  -0.2420   3.4653   5.0964   9.3412  12.6063
    13.1029  13.8367

     occupation numbers 
     1.0000   1.0000   1.0000   1.0000   1.0000   1.0000   1.0000   1.0000
     1.0000   1.0000   1.0000   1.0000   1.0000   1.0000   0.0000   0.0000
     0.0000   0.0000

          k = 0.0392-0.3807 0.4895 (  1651 PWs)   bands (ev):

   -17.1615 -17.1410 -17.0628 -17.0228 -17.0087 -16.9745 -16.9550 -16.9331
   -16.8531 -16.8352  -2.2710   0.2535   3.6284   5.4363   9.6234  12.3450
    12.8601  14.0214

     occupation numbers 
     1.0000   1.0000   1.0000   1.0000   1.0000   1.0000   1.0000   1.0000
     1.0000   1.0000   1.0000   1.0000   1.0000   1.0000   0.0000   0.0000
     0.0000   0.0000

          k = 0.0957-0.3264 0.4351 (  1646 PWs)   bands (ev):

   -17.1571 -17.1385 -17.0712 -17.0382 -17.0232 -16.9588 -16.9356 -16.9294
   -16.8566 -16.8412  -2.7397   0.6482   4.2176   5.8397   9.7275  11.3079
    12.5644  13.6364

     occupation numbers 
     1.0000   1.0000   1.0000   1.0000   1.0000   1.0000   1.0000   1.0000
     1.0000   1.0000   1.0000   1.0000   1.0000   1.0000   0.0000   0.0000
     0.0000   0.0000

          k = 0.1523-0.2720 0.3807 (  1647 PWs)   bands (ev):

   -17.1512 -17.1344 -17.0832 -17.0456 -17.0368 -16.9462 -16.9255 -16.9181
   -16.8615 -16.8489  -3.1232   0.9667   5.1211   6.1833   9.2132  10.9214
    12.1690  13.5521

     occupation numbers 
     1.0000   1.0000   1.0000   1.0000   1.0000   1.0000   1.0000   1.0000
     1.0000   1.0000   1.0000   1.0000   1.0000   1.0000   0.0000   0.0000
     0.0000   0.0000

          k = 0.2611-0.2720 0.3807 (  1638 PWs)   bands (ev):

   -17.1496 -17.1326 -17.0856 -17.0476 -17.0441 -16.9342 -16.9260 -16.9166
   -16.8641 -16.8508  -2.9976   0.5356   5.8183   6.2422   8.4551  11.0139
    11.8344  14.5349

     occupation numbers 
     1.0000   1.0000   1.0000   1.0000   1.0000   1.0000   1.0000   1.0000
     1.0000   1.0000   1.0000   1.0000   1.0000   1.0000   0.0000   0.0000
     0.0000   0.0000

          k = 0.3177-0.2176 0.3264 (  1646 PWs)   bands (ev):

   -17.1508 -17.1306 -17.0853 -17.0499 -17.0436 -16.9294 -16.9264 -16.9202
   -16.8661 -16.8493  -3.1164   0.7524   5.6865   6.4551   8.4218  11.3197
    11.5128  14.6947

     occupation numbers 
     1.0000   1.0000   1.0000   1.0000   1.0000   1.0000   1.0000   1.0000
     1.0000   1.0000   1.0000   1.0000   1.0000   1.0000   0.0000   0.0000
     0.0000   0.0000

          k = 0.3742-0.1632 0.2720 (  1639 PWs)   bands (ev):

   -17.1541 -17.1318 -17.0820 -17.0471 -17.0345 -16.9473 -16.9236 -16.9209
   -16.8652 -16.8449  -3.1298   1.0024   5.0463   6.1946   9.1195  11.1017
    12.1333  13.8559

     occupation numbers 
     1.0000   1.0000   1.0000   1.0000   1.0000   1.0000   1.0000   1.0000
     1.0000   1.0000   1.0000   1.0000   1.0000   1.0000   0.0000   0.0000
     0.0000   0.0000

          k = 0.4308-0.1088 0.2176 (  1634 PWs)   bands (ev):

   -17.1551 -17.1347 -17.0823 -17.0396 -17.0170 -16.9722 -16.9290 -16.9155
   -16.8621 -16.8429  -3.0290   1.1562   4.5280   5.7054   9.4756  11.1702
    12.3586  13.4235

     occupation numbers 
     1.0000   1.0000   1.0000   1.0000   1.0000   1.0000   1.0000   1.0000
     1.0000   1.0000   1.0000   1.0000   1.0000   1.0000   0.0000   0.0000
     0.0000   0.0000

          k = 0.4874-0.0544 0.1632 (  1647 PWs)   bands (ev):

   -17.1521 -17.1381 -17.0854 -17.0291 -16.9996 -16.9940 -16.9378 -16.9100
   -16.8580 -16.8452  -2.8095   1.0213   4.4096   5.2388   9.1718  10.4341
    12.8161  14.6118

     occupation numbers 
     1.0000   1.0000   1.0000   1.0000   1.0000   1.0000   1.0000   1.0000
     1.0000   1.0000   1.0000   1.0000   1.0000   1.0000   0.0000   0.0000
     0.0000   0.0000

          k = 0.5439 0.0000 0.1088 (  1652 PWs)   bands (ev):

   -17.1460 -17.1413 -17.0884 -17.0218 -17.0154 -16.9756 -16.9485 -16.9071
   -16.8539 -16.8500  -2.4722   0.5770   4.6334   4.8934   8.7097   9.4368
    14.1572  15.3799

     occupation numbers 
     1.0000   1.0000   1.0000   1.0000   1.0000   1.0000   1.0000   1.0000
     1.0000   1.0000   1.0000   1.0000   1.0000   1.0000   0.0000   0.0000
     0.0000   0.0000

          k =-0.0783-0.5983 0.7071 (  1647 PWs)   bands (ev):

   -17.1494 -17.1413 -17.0727 -17.0471 -16.9916 -16.9732 -16.9482 -16.9258
   -16.8517 -16.8449  -1.4935  -0.6061   4.4880   4.6307   8.7522   8.9208
    14.9739  16.3617

     occupation numbers 
     1.0000   1.0000   1.0000   1.0000   1.0000   1.0000   1.0000   1.0000
     1.0000   1.0000   1.0000   1.0000   1.0000   1.0000   0.0000   0.0000
     0.0000   0.0000

          k =-0.0218-0.5439 0.6527 (  1647 PWs)   bands (ev):

   -17.1557 -17.1427 -17.0595 -17.0432 -16.9875 -16.9788 -16.9520 -16.9369
   -16.8503 -16.8391  -1.2117  -0.8647   4.0383   4.6450   8.9383   9.8737
    14.6366  15.5436

     occupation numbers 
     1.0000   1.0000   1.0000   1.0000   1.0000   1.0000   1.0000   1.0000
     1.0000   1.0000   1.0000   1.0000   1.0000   1.0000   0.0000   0.0000
     0.0000   0.0000

          k = 0.0348-0.4895 0.5983 (  1646 PWs)   bands (ev):

   -17.1606 -17.1432 -17.0602 -17.0185 -17.0023 -16.9764 -16.9656 -16.9339
   -16.8505 -16.8350  -1.6907  -0.3361   3.6830   4.8609   9.1628  11.2801
    14.0480  14.2748

     occupation numbers 
     1.0000   1.0000   1.0000   1.0000   1.0000   1.0000   1.0000   1.0000
     1.0000   1.0000   1.0000   1.0000   1.0000   1.0000   0.0000   0.0000
     0.0000   0.0000

          k = 0.0914-0.4351 0.5439 (  1643 PWs)   bands (ev):

   -17.1617 -17.1424 -17.0625 -17.0192 -17.0027 -16.9875 -16.9530 -16.9314
   -16.8521 -16.8349  -2.1239   0.0620   3.7139   5.2068   9.4702  12.4069
    13.0326  13.7573

     occupation numbers 
     1.0000   1.0000   1.0000   1.0000   1.0000   1.0000   1.0000   1.0000
     1.0000   1.0000   1.0000   1.0000   1.0000   1.0000   0.0000   0.0000
     0.0000   0.0000

          k = 0.1479-0.3807 0.4895 (  1650 PWs)   bands (ev):

   -17.1586 -17.1403 -17.0677 -17.0345 -17.0213 -16.9632 -16.9400 -16.9290
   -16.8552 -16.8392  -2.4906   0.2685   4.2026   5.6366   9.6440  11.3664
    12.8947  14.3054

     occupation numbers 
     1.0000   1.0000   1.0000   1.0000   1.0000   1.0000   1.0000   1.0000
     1.0000   1.0000   1.0000   1.0000   1.0000   1.0000   0.0000   0.0000
     0.0000   0.0000

          k = 0.2045-0.3264 0.4351 (  1646 PWs)   bands (ev):

   -17.1531 -17.1368 -17.0775 -17.0435 -17.0357 -16.9448 -16.9303 -16.9227
   -16.8595 -16.8461  -2.7850   0.3878   5.0077   6.0443   9.1514  11.0252
    12.1515  14.4795

     occupation numbers 
     1.0000   1.0000   1.0000   1.0000   1.0000   1.0000   1.0000   1.0000
     1.0000   1.0000   1.0000   1.0000   1.0000   1.0000   0.0000   0.0000
     0.0000   0.0000

          k =-0.3655 0.3807-0.2720 (  1648 PWs)   bands (ev):

   -17.1507 -17.1337 -17.0822 -17.0504 -17.0416 -16.9309 -16.9294 -16.9191
   -16.8638 -16.8492  -2.8730   0.3291   5.6757   6.2964   8.4373  11.1290
    11.7297  14.8379

     occupation numbers 
     1.0000   1.0000   1.0000   1.0000   1.0000   1.0000   1.0000   1.0000
     1.0000   1.0000   1.0000   1.0000   1.0000   1.0000   0.0000   0.0000
     0.0000   0.0000

          k =-0.3090 0.4351-0.3264 (  1643 PWs)   bands (ev):

   -17.1520 -17.1314 -17.0833 -17.0489 -17.0422 -16.9304 -16.9253 -16.9239
   -16.8656 -16.8477  -2.8658   0.3259   5.6750   6.2943   8.4000  11.2879
    11.5482  14.9205

     occupation numbers 
     1.0000   1.0000   1.0000   1.0000   1.0000   1.0000   1.0000   1.0000
     1.0000   1.0000   1.0000   1.0000   1.0000   1.0000   0.0000   0.0000
     0.0000   0.0000

          k =-0.2524 0.4895-0.3807 (  1644 PWs)   bands (ev):

   -17.1560 -17.1332 -17.0779 -17.0415 -17.0363 -16.9426 -16.9321 -16.9249
   -16.8631 -16.8425  -2.7814   0.4050   4.9403   6.0852   9.0402  11.1154
    12.1171  14.8308

     occupation numbers 
     1.0000   1.0000   1.0000   1.0000   1.0000   1.0000   1.0000   1.0000
     1.0000   1.0000   1.0000   1.0000   1.0000   1.0000   0.0000   0.0000
     0.0000   0.0000

          k =-0.1958 0.5439-0.4351 (  1637 PWs)   bands (ev):

   -17.1589 -17.1369 -17.0736 -17.0323 -17.0190 -16.9683 -16.9384 -16.9244
   -16.8588 -16.8384  -2.6145   0.4788   4.2626   5.6438   9.4684  11.2827
    13.0227  13.6247

     occupation numbers 
     1.0000   1.0000   1.0000   1.0000   1.0000   1.0000   1.0000   1.0000
     1.0000   1.0000   1.0000   1.0000   1.0000   1.0000   0.0000   0.0000
     0.0000   0.0000

          k =-0.1392 0.5983-0.4895 (  1646 PWs)   bands (ev):

   -17.1582 -17.1404 -17.0724 -17.0209 -16.9974 -16.9947 -16.9478 -16.9233
   -16.8546 -16.8381  -2.3575   0.3784   3.9528   5.1887   9.2738  11.4452
    12.5629  14.6318

     occupation numbers 
     1.0000   1.0000   1.0000   1.0000   1.0000   1.0000   1.0000   1.0000
     1.0000   1.0000   1.0000   1.0000   1.0000   1.0000   0.0000   0.0000
     0.0000   0.0000

          k =-0.0827 0.6527-0.5439 (  1651 PWs)   bands (ev):

   -17.1535 -17.1432 -17.0721 -17.0253 -17.0067 -16.9715 -16.9583 -16.9233
   -16.8511 -16.8418  -2.0052   0.0060   4.1075   4.8207   8.9791  10.0578
    13.8918  15.6595

     occupation numbers 
     1.0000   1.0000   1.0000   1.0000   1.0000   1.0000   1.0000   1.0000
     1.0000   1.0000   1.0000   1.0000   1.0000   1.0000   0.0000   0.0000
     0.0000   0.0000

          k =-0.0261 0.7071-0.5983 (  1651 PWs)   bands (ev):

   -17.1468 -17.1453 -17.0705 -17.0474 -16.9939 -16.9710 -16.9493 -16.9260
   -16.8484 -16.8472  -1.5599  -0.5332   4.5082   4.5943   8.7320   8.9793
    15.3471  16.0660

     occupation numbers 
     1.0000   1.0000   1.0000   1.0000   1.0000   1.0000   1.0000   1.0000
     1.0000   1.0000   1.0000   1.0000   1.0000   1.0000   0.0000   0.0000
     0.0000   0.0000

          k =-0.6484 0.1088-0.0000 (  1656 PWs)   bands (ev):

   -17.1512 -17.1422 -17.0686 -17.0477 -16.9964 -16.9685 -16.9508 -16.9261
   -16.8511 -16.8437  -1.6256  -0.4601   4.5337   4.5479   8.7173   9.0388
    15.7782  15.8180

     occupation numbers 
     1.0000   1.0000   1.0000   1.0000   1.0000   1.0000   1.0000   1.0000
     1.0000   1.0000   1.0000   1.0000   1.0000   1.0000   0.0000   0.0000
     0.0000   0.0000

          k =-0.5918 0.1632-0.0544 (  1650 PWs)   bands (ev):

   -17.1561 -17.1426 -17.0694 -17.0249 -17.0100 -16.9722 -16.9563 -16.9238
   -16.8516 -16.8399  -2.0623   0.0714   4.1399   4.7535   9.0365  10.0905
    14.3038  15.2315

     occupation numbers 
     1.0000   1.0000   1.0000   1.0000   1.0000   1.0000   1.0000   1.0000
     1.0000   1.0000   1.0000   1.0000   1.0000   1.0000   0.0000   0.0000
     0.0000   0.0000

          k =-0.5352 0.2176-0.1088 (  1642 PWs)   bands (ev):

   -17.1591 -17.1418 -17.0691 -17.0244 -16.9982 -16.9951 -16.9448 -16.9241
   -16.8535 -16.8379  -2.4040   0.4241   4.0033   5.1039   9.3763  11.4918
    12.8408  14.2929

     occupation numbers 
     1.0000   1.0000   1.0000   1.0000   1.0000   1.0000   1.0000   1.0000
     1.0000   1.0000   1.0000   1.0000   1.0000   1.0000   0.0000   0.0000
     0.0000   0.0000

          k =-0.4787 0.2720-0.1632 (  1637 PWs)   bands (ev):

   -17.1580 -17.1400 -17.0699 -17.0374 -17.0179 -16.9700 -16.9347 -16.9251
   -16.8564 -16.8397  -2.6490   0.5030   4.3205   5.5611   9.6193  11.4062
    12.9553  13.5656

     occupation numbers 
     1.0000   1.0000   1.0000   1.0000   1.0000   1.0000   1.0000   1.0000
     1.0000   1.0000   1.0000   1.0000   1.0000   1.0000   0.0000   0.0000
     0.0000   0.0000

          k =-0.4221 0.3264-0.2176 (  1645 PWs)   bands (ev):

   -17.1539 -17.1373 -17.0750 -17.0465 -17.0339 -16.9461 -16.9296 -16.9230
   -16.8599 -16.8449  -2.8028   0.4159   4.9785   6.0355   9.1751  11.0712
    12.1587  14.7852

     occupation numbers 
     1.0000   1.0000   1.0000   1.0000   1.0000   1.0000   1.0000   1.0000
     1.0000   1.0000   1.0000   1.0000   1.0000   1.0000   0.0000   0.0000
     0.0000   0.0000

          k =-0.3133 0.3264-0.2176 (  1640 PWs)   bands (ev):

   -17.1507 -17.1332 -17.0810 -17.0541 -17.0420 -16.9301 -16.9283 -16.9182
   -16.8651 -16.8490  -3.1364   0.7791   5.6357   6.4489   8.5076  11.2593
    11.6358  14.8187

     occupation numbers 
     1.0000   1.0000   1.0000   1.0000   1.0000   1.0000   1.0000   1.0000
     1.0000   1.0000   1.0000   1.0000   1.0000   1.0000   0.0000   0.0000
     0.0000   0.0000

          k =-0.2567 0.3807-0.2720 (  1637 PWs)   bands (ev):

   -17.1519 -17.1310 -17.0836 -17.0506 -17.0418 -16.9347 -16.9219 -16.9213
   -16.8667 -16.8477  -3.0062   0.5590   5.7686   6.2260   8.4667  11.2226
    11.6504  14.7898

     occupation numbers 
     1.0000   1.0000   1.0000   1.0000   1.0000   1.0000   1.0000   1.0000
     1.0000   1.0000   1.0000   1.0000   1.0000   1.0000   0.0000   0.0000
     0.0000   0.0000

          k =-0.2002 0.4351-0.3264 (  1642 PWs)   bands (ev):

   -17.1560 -17.1332 -17.0778 -17.0414 -17.0364 -16.9424 -16.9323 -16.9249
   -16.8631 -16.8425  -2.7811   0.4047   4.9397   6.0858   9.0400  11.1162
    12.1163  14.8251

     occupation numbers 
     1.0000   1.0000   1.0000   1.0000   1.0000   1.0000   1.0000   1.0000
     1.0000   1.0000   1.0000   1.0000   1.0000   1.0000   0.0000   0.0000
     0.0000   0.0000

          k =-0.1436 0.4895-0.3807 (  1642 PWs)   bands (ev):

   -17.1599 -17.1378 -17.0697 -17.0283 -17.0237 -16.9606 -16.9457 -16.9283
   -16.8574 -16.8373  -2.4732   0.2713   4.1330   5.7061   9.5164  11.2252
    13.1267  14.4578

     occupation numbers 
     1.0000   1.0000   1.0000   1.0000   1.0000   1.0000   1.0000   1.0000
     1.0000   1.0000   1.0000   1.0000   1.0000   1.0000   0.0000   0.0000
     0.0000   0.0000

          k =-0.0870 0.5439-0.4351 (  1642 PWs)   bands (ev):

   -17.1611 -17.1418 -17.0646 -17.0145 -17.0022 -16.9875 -16.9571 -16.9308
   -16.8527 -16.8348  -2.0927   0.0409   3.6645   5.2696   9.3952  12.1353
    12.9505  14.2807

     occupation numbers 
     1.0000   1.0000   1.0000   1.0000   1.0000   1.0000   1.0000   1.0000
     1.0000   1.0000   1.0000   1.0000   1.0000   1.0000   0.0000   0.0000
     0.0000   0.0000

          k =-0.0305 0.5983-0.4895 (  1645 PWs)   bands (ev):

   -17.1586 -17.1443 -17.0616 -17.0181 -16.9989 -16.9768 -16.9682 -16.9337
   -16.8495 -16.8365  -1.6471  -0.3800   3.6621   4.8980   9.1256  11.2667
    13.5887  14.8168

     occupation numbers 
     1.0000   1.0000   1.0000   1.0000   1.0000   1.0000   1.0000   1.0000
     1.0000   1.0000   1.0000   1.0000   1.0000   1.0000   0.0000   0.0000
     0.0000   0.0000

          k = 0.0261 0.6527-0.5439 (  1653 PWs)   bands (ev):

   -17.1526 -17.1458 -17.0594 -17.0433 -16.9857 -16.9806 -16.9518 -16.9370
   -16.8478 -16.8417  -1.1831  -0.8941   4.0419   4.6455   8.9372   9.8688
    14.9890  15.1097

     occupation numbers 
     1.0000   1.0000   1.0000   1.0000   1.0000   1.0000   1.0000   1.0000
     1.0000   1.0000   1.0000   1.0000   1.0000   1.0000   0.0000   0.0000
     0.0000   0.0000

          k =-0.5396 0.1088 0.0000 (  1656 PWs)   bands (ev):

   -17.1508 -17.1402 -17.0843 -17.0196 -17.0192 -16.9778 -16.9461 -16.9089
   -16.8550 -16.8462  -2.5279   0.6502   4.6396   4.8344   8.7409   9.5343
    14.5580  15.3445

     occupation numbers 
     1.0000   1.0000   1.0000   1.0000   1.0000   1.0000   1.0000   1.0000
     1.0000   1.0000   1.0000   1.0000   1.0000   1.0000   0.0000   0.0000
     0.0000   0.0000

          k =-0.4830 0.1632-0.0544 (  1649 PWs)   bands (ev):

   -17.1544 -17.1396 -17.0809 -17.0319 -16.9980 -16.9970 -16.9352 -16.9120
   -16.8570 -16.8436  -2.8575   1.0799   4.4411   5.1520   9.2817  10.5043
    13.0797  14.4540

     occupation numbers 
     1.0000   1.0000   1.0000   1.0000   1.0000   1.0000   1.0000   1.0000
     1.0000   1.0000   1.0000   1.0000   1.0000   1.0000   0.0000   0.0000
     0.0000   0.0000

          k =-0.4264 0.2176-0.1088 (  1637 PWs)   bands (ev):

   -17.1554 -17.1380 -17.0771 -17.0433 -17.0180 -16.9725 -16.9261 -16.9175
   -16.8598 -16.8430  -3.0685   1.1965   4.5540   5.6314   9.6504  11.2625
    12.4073  13.3718

     occupation numbers 
     1.0000   1.0000   1.0000   1.0000   1.0000   1.0000   1.0000   1.0000
     1.0000   1.0000   1.0000   1.0000   1.0000   1.0000   0.0000   0.0000
     0.0000   0.0000

          k =-0.3699 0.2720-0.1632 (  1634 PWs)   bands (ev):

   -17.1532 -17.1360 -17.0766 -17.0514 -17.0344 -16.9483 -16.9236 -16.9198
   -16.8625 -16.8458  -3.1600   1.0328   5.0378   6.1588   9.2830  11.0861
    12.1749  13.9457

     occupation numbers 
     1.0000   1.0000   1.0000   1.0000   1.0000   1.0000   1.0000   1.0000
     1.0000   1.0000   1.0000   1.0000   1.0000   1.0000   0.0000   0.0000
     0.0000   0.0000

          k =-0.2611 0.2720-0.1632 (  1630 PWs)   bands (ev):

   -17.1495 -17.1312 -17.0827 -17.0580 -17.0460 -16.9276 -16.9274 -16.9127
   -16.8683 -16.8505  -3.5779   1.6690   5.7079   6.6868   8.6593  11.3595
    11.5095  14.0391

     occupation numbers 
     1.0000   1.0000   1.0000   1.0000   1.0000   1.0000   1.0000   1.0000
     1.0000   1.0000   1.0000   1.0000   1.0000   1.0004   0.0000   0.0000
     0.0000   0.0000

          k =-0.2045 0.3264-0.2176 (  1631 PWs)   bands (ev):

   -17.1504 -17.1295 -17.0862 -17.0541 -17.0434 -16.9369 -16.9173 -16.9163
   -16.8691 -16.8495  -3.4138   1.3250   5.9592   6.2587   8.6173  11.1442
    11.7428  14.1131

     occupation numbers 
     1.0000   1.0000   1.0000   1.0000   1.0000   1.0000   1.0000   1.0000
     1.0000   1.0000   1.0000   1.0000   1.0000   1.0000   0.0000   0.0000
     0.0000   0.0000

          k =-0.1479 0.3807-0.2720 (  1637 PWs)   bands (ev):

   -17.1540 -17.1318 -17.0819 -17.0471 -17.0346 -16.9472 -16.9235 -16.9212
   -16.8653 -16.8449  -3.1291   1.0018   5.0445   6.1962   9.1191  11.1032
    12.1315  13.8497

     occupation numbers 
     1.0000   1.0000   1.0000   1.0000   1.0000   1.0000   1.0000   1.0000
     1.0000   1.0000   1.0000   1.0000   1.0000   1.0000   0.0000   0.0000
     0.0000   0.0000

          k =-0.0914 0.4351-0.3264 (  1644 PWs)   bands (ev):

   -17.1580 -17.1372 -17.0715 -17.0368 -17.0216 -16.9594 -16.9386 -16.9286
   -16.8582 -16.8396  -2.7371   0.6712   4.1537   5.8833   9.6159  11.1927
    12.9358  13.7438

     occupation numbers 
     1.0000   1.0000   1.0000   1.0000   1.0000   1.0000   1.0000   1.0000
     1.0000   1.0000   1.0000   1.0000   1.0000   1.0000   0.0000   0.0000
     0.0000   0.0000

          k =-0.0348 0.4895-0.3807 (  1635 PWs)   bands (ev):

   -17.1604 -17.1418 -17.0635 -17.0212 -17.0062 -16.9757 -16.9577 -16.9327
   -16.8525 -16.8359  -2.2610   0.2558   3.5945   5.4708   9.5787  12.0186
    13.3254  14.0297

     occupation numbers 
     1.0000   1.0000   1.0000   1.0000   1.0000   1.0000   1.0000   1.0000
     1.0000   1.0000   1.0000   1.0000   1.0000   1.0000   0.0000   0.0000
     0.0000   0.0000

          k = 0.0218 0.5439-0.4351 (  1642 PWs)   bands (ev):

   -17.1598 -17.1445 -17.0602 -17.0087 -16.9941 -16.9881 -16.9707 -16.9355
   -16.8494 -16.8355  -1.7604  -0.2507   3.4651   5.1023   9.3348  12.6389
    13.3141  13.5177

     occupation numbers 
     1.0000   1.0000   1.0000   1.0000   1.0000   1.0000   1.0000   1.0000
     1.0000   1.0000   1.0000   1.0000   1.0000   1.0000   0.0000   0.0000
     0.0000   0.0000

          k = 0.0783 0.5983-0.4895 (  1644 PWs)   bands (ev):

   -17.1558 -17.1456 -17.0622 -17.0215 -16.9947 -16.9772 -16.9674 -16.9344
   -16.8482 -16.8390  -1.5333  -0.5051   3.7106   4.8450   9.1424  11.1963
    13.6374  14.5301

     occupation numbers 
     1.0000   1.0000   1.0000   1.0000   1.0000   1.0000   1.0000   1.0000
     1.0000   1.0000   1.0000   1.0000   1.0000   1.0000   0.0000   0.0000
     0.0000   0.0000

          k =-0.6005-0.0544 0.1632 (  1652 PWs)   bands (ev):

   -17.1489 -17.1459 -17.0737 -17.0272 -17.0045 -16.9695 -16.9596 -16.9230
   -16.8487 -16.8456  -1.9389  -0.0734   4.1931   4.7396   9.0303   9.9513
    13.8710  15.2757

     occupation numbers 
     1.0000   1.0000   1.0000   1.0000   1.0000   1.0000   1.0000   1.0000
     1.0000   1.0000   1.0000   1.0000   1.0000   1.0000   0.0000   0.0000
     0.0000   0.0000

          k =-0.4308 0.1088-0.0000 (  1656 PWs)   bands (ev):

   -17.1490 -17.1355 -17.0934 -17.0401 -17.0052 -16.9902 -16.9260 -16.8991
   -16.8627 -16.8505  -3.2904   1.7987   4.9425   5.3487   8.9794  10.1442
    13.3231  14.1585

     occupation numbers 
     1.0000   1.0000   1.0000   1.0000   1.0000   1.0000   1.0000   1.0000
     1.0000   1.0000   1.0000   1.0000   1.0000   1.0000   0.0000   0.0000
     0.0000   0.0000

          k =-0.3742 0.1632-0.0544 (  1633 PWs)   bands (ev):

   -17.1511 -17.1343 -17.0868 -17.0502 -17.0229 -16.9692 -16.9175 -16.9072
   -16.8654 -16.8484  -3.5178   2.0754   4.9113   5.8289   9.6430  10.7103
    12.3286  13.2683

     occupation numbers 
     1.0000   1.0000   1.0000   1.0000   1.0000   1.0000   1.0000   1.0000
     1.0000   1.0000   1.0000   1.0000   1.0000   1.0000   0.0000   0.0000
     0.0000   0.0000

          k =-0.3177 0.2176-0.1088 (  1629 PWs)   bands (ev):

   -17.1509 -17.1328 -17.0818 -17.0568 -17.0385 -16.9473 -16.9179 -16.9119
   -16.8674 -16.8486  -3.6138   1.9767   5.2071   6.3889   9.4613  10.9427
    12.1441  13.0543

     occupation numbers 
     1.0000   1.0000   1.0000   1.0000   1.0000   1.0000   1.0000   1.0000
     1.0000   1.0000   1.0000   1.0000   1.0000   1.0000   0.0000   0.0000
     0.0000   0.0000

          k =-0.2089 0.2176-0.1088 (  1619 PWs)   bands (ev):

   -17.1469 -17.1273 -17.0866 -17.0626 -17.0532 -16.9263 -16.9216 -16.9050
   -16.8736 -16.8538  -4.0116   2.7928   5.9019   6.9851   8.8701  11.2721
    11.2861  12.8644

     occupation numbers 
     1.0000   1.0000   1.0000   1.0000   1.0000   1.0000   1.0000   1.0000
     1.0000   1.0000   1.0000   1.0000   1.0000   1.0284   0.0000   0.0000
     0.0000   0.0000

          k =-0.1523 0.2720-0.1632 (  1628 PWs)   bands (ev):

   -17.1475 -17.1268 -17.0901 -17.0594 -17.0479 -16.9360 -16.9120 -16.9100
   -16.8729 -16.8531  -3.8632   2.3862   6.2309   6.3979   8.8341  10.9478
    11.7198  13.1459

     occupation numbers 
     1.0000   1.0000   1.0000   1.0000   1.0000   1.0000   1.0000   1.0000
     1.0000   1.0000   1.0000   1.0000   1.0000   1.0000   0.0000   0.0000
     0.0000   0.0000

          k =-0.0957 0.3264-0.2176 (  1634 PWs)   bands (ev):

   -17.1502 -17.1289 -17.0889 -17.0532 -17.0368 -16.9476 -16.9195 -16.9097
   -16.8696 -16.8494  -3.5829   1.9373   5.2638   6.4000   9.2583  10.9325
    12.1012  12.9442

     occupation numbers 
     1.0000   1.0000   1.0000   1.0000   1.0000   1.0000   1.0000   1.0000
     1.0000   1.0000   1.0000   1.0000   1.0000   1.0000   0.0000   0.0000
     0.0000   0.0000

          k =-0.0392 0.3807-0.2720 (  1636 PWs)   bands (ev):

   -17.1536 -17.1347 -17.0795 -17.0453 -17.0236 -16.9589 -16.9263 -16.9231
   -16.8615 -16.8448  -3.1821   1.4272   4.3586   6.1465   9.7269  11.0586
    12.4870  12.9895

     occupation numbers 
     1.0000   1.0000   1.0000   1.0000   1.0000   1.0000   1.0000   1.0000
     1.0000   1.0000   1.0000   1.0000   1.0000   1.0000   0.0000   0.0000
     0.0000   0.0000

          k = 0.0174 0.4351-0.3264 (  1643 PWs)   bands (ev):

   -17.1561 -17.1402 -17.0693 -17.0349 -17.0108 -16.9692 -16.9419 -16.9312
   -16.8545 -16.8410  -2.6880   0.8111   3.7999   5.7624   9.7589  11.7105
    12.4055  13.6996

     occupation numbers 
     1.0000   1.0000   1.0000   1.0000   1.0000   1.0000   1.0000   1.0000
     1.0000   1.0000   1.0000   1.0000   1.0000   1.0000   0.0000   0.0000
     0.0000   0.0000

          k = 0.0740 0.4895-0.3807 (  1649 PWs)   bands (ev):

   -17.1567 -17.1434 -17.0645 -17.0225 -17.0024 -16.9763 -16.9580 -16.9336
   -16.8508 -16.8392  -2.1789   0.1738   3.6173   5.4059   9.5655  12.0595
    13.0160  13.9998

     occupation numbers 
     1.0000   1.0000   1.0000   1.0000   1.0000   1.0000   1.0000   1.0000
     1.0000   1.0000   1.0000   1.0000   1.0000   1.0000   0.0000   0.0000
     0.0000   0.0000

          k = 0.1305 0.5439-0.4351 (  1650 PWs)   bands (ev):

   -17.1548 -17.1445 -17.0665 -17.0166 -17.0012 -16.9815 -16.9599 -16.9316
   -16.8497 -16.8405  -1.9273  -0.1350   3.7330   5.1544   9.3992  12.0160
    12.9232  13.8118

     occupation numbers 
     1.0000   1.0000   1.0000   1.0000   1.0000   1.0000   1.0000   1.0000
     1.0000   1.0000   1.0000   1.0000   1.0000   1.0000   0.0000   0.0000
     0.0000   0.0000

          k =-0.5483-0.1088 0.2176 (  1649 PWs)   bands (ev):

   -17.1499 -17.1445 -17.0756 -17.0194 -17.0050 -16.9833 -16.9514 -16.9224
   -16.8507 -16.8453  -2.2319   0.2357   4.0615   5.0521   9.3178  11.2132
    12.5422  14.1809

     occupation numbers 
     1.0000   1.0000   1.0000   1.0000   1.0000   1.0000   1.0000   1.0000
     1.0000   1.0000   1.0000   1.0000   1.0000   1.0000   0.0000   0.0000
     0.0000   0.0000

          k =-0.4917-0.0544 0.1632 (  1651 PWs)   bands (ev):

   -17.1444 -17.1423 -17.0888 -17.0270 -17.0039 -16.9884 -16.9404 -16.9081
   -16.8541 -16.8517  -2.7549   0.9534   4.5103   5.1369   9.2458  10.2349
    12.7468  14.3345

     occupation numbers 
     1.0000   1.0000   1.0000   1.0000   1.0000   1.0000   1.0000   1.0000
     1.0000   1.0000   1.0000   1.0000   1.0000   1.0000   0.0000   0.0000
     0.0000   0.0000

          k =-0.3220 0.1088 0.0000 (  1649 PWs)   bands (ev):

   -17.1462 -17.1291 -17.0960 -17.0573 -17.0314 -16.9613 -16.9097 -16.8975
   -16.8728 -16.8546  -3.8959   2.9525   5.4285   6.0695   9.4032  10.4234
    12.4349  12.8542

     occupation numbers 
     1.0000   1.0000   1.0000   1.0000   1.0000   1.0000   1.0000   1.0000
     1.0000   1.0000   1.0000   1.0000   1.0000   1.0000   0.0000   0.0000
     0.0000   0.0000

          k =-0.2654 0.1632-0.0544 (  1627 PWs)   bands (ev):

   -17.1472 -17.1279 -17.0887 -17.0628 -17.0458 -16.9426 -16.9117 -16.9023
   -16.8745 -16.8532  -4.0228   3.0552   5.5258   6.6736   9.6714  10.4845
    11.9898  12.4029

     occupation numbers 
     1.0000   1.0000   1.0000   1.0000   1.0000   1.0000   1.0000   1.0000
     1.0000   1.0000   1.0000   1.0000   1.0000   1.0003   0.0000   0.0000
     0.0000   0.0000

          k =-0.1567 0.1632-0.0544 (  1640 PWs)   bands (ev):

   -17.1428 -17.1221 -17.0910 -17.0681 -17.0624 -16.9236 -16.9131 -16.8970
   -16.8810 -16.8590  -4.3600   4.0235   6.2369   7.2942   9.0646  10.8622
    10.9223  11.8163

     occupation numbers 
     1.0000   1.0000   1.0000   1.0000   1.0000   1.0000   1.0000   1.0000
     1.0000   1.0000   1.0000   1.0000   1.0000   1.0337   0.0000   0.0000
     0.0000   0.0000

          k =-0.1001 0.2176-0.1088 (  1640 PWs)   bands (ev):

   -17.1432 -17.1229 -17.0943 -17.0663 -17.0549 -16.9321 -16.9055 -16.9033
   -16.8781 -16.8586  -4.2464   3.6063   6.5474   6.6482   9.0708  10.5280
    11.4756  12.2002

     occupation numbers 
     1.0000   1.0000   1.0000   1.0000   1.0000   1.0000   1.0000   1.0000
     1.0000   1.0000   1.0000   1.0000   1.0000   1.0002   0.0000   0.0000
     0.0000   0.0000

          k =-0.0435 0.2720-0.1632 (  1639 PWs)   bands (ev):

   -17.1449 -17.1249 -17.0967 -17.0596 -17.0428 -16.9438 -16.9141 -16.8986
   -16.8757 -16.8555  -3.9955   3.0206   5.6178   6.6584   9.4032  10.4445
    11.8644  12.4661

     occupation numbers 
     1.0000   1.0000   1.0000   1.0000   1.0000   1.0000   1.0000   1.0000
     1.0000   1.0000   1.0000   1.0000   1.0000   1.0003   0.0000   0.0000
     0.0000   0.0000

          k = 0.0131 0.3264-0.2176 (  1644 PWs)   bands (ev):

   -17.1474 -17.1305 -17.0912 -17.0516 -17.0305 -16.9541 -16.9219 -16.9076
   -16.8676 -16.8516  -3.6167   2.2765   4.8070   6.4375   9.7438  10.5448
    12.2820  12.5019

     occupation numbers 
     1.0000   1.0000   1.0000   1.0000   1.0000   1.0000   1.0000   1.0000
     1.0000   1.0000   1.0000   1.0000   1.0000   1.0000   0.0000   0.0000
     0.0000   0.0000

          k = 0.0696 0.3807-0.2720 (  1647 PWs)   bands (ev):

   -17.1492 -17.1366 -17.0820 -17.0437 -17.0203 -16.9612 -16.9282 -16.9220
   -16.8594 -16.8486  -3.1341   1.4068   4.3379   6.0832   9.7026  10.9964
    12.2320  13.0883

     occupation numbers 
     1.0000   1.0000   1.0000   1.0000   1.0000   1.0000   1.0000   1.0000
     1.0000   1.0000   1.0000   1.0000   1.0000   1.0000   0.0000   0.0000
     0.0000   0.0000

          k = 0.1262 0.4351-0.3264 (  1652 PWs)   bands (ev):

   -17.1499 -17.1408 -17.0750 -17.0358 -17.0150 -16.9633 -16.9389 -16.9294
   -16.8542 -16.8468  -2.6151   0.5789   4.1528   5.7536   9.5570  11.1466
    12.5424  13.7875

     occupation numbers 
     1.0000   1.0000   1.0000   1.0000   1.0000   1.0000   1.0000   1.0000
     1.0000   1.0000   1.0000   1.0000   1.0000   1.0000   0.0000   0.0000
     0.0000   0.0000

          k = 0.1828 0.4895-0.3807 (  1646 PWs)   bands (ev):

   -17.1492 -17.1425 -17.0739 -17.0294 -17.0145 -16.9633 -16.9477 -16.9285
   -16.8524 -16.8466  -2.2738   0.0950   4.1683   5.5290   9.4599  11.1204
    12.7668  14.3725

     occupation numbers 
     1.0000   1.0000   1.0000   1.0000   1.0000   1.0000   1.0000   1.0000
     1.0000   1.0000   1.0000   1.0000   1.0000   1.0000   0.0000   0.0000
     0.0000   0.0000

          k =-0.4961-0.1632 0.2720 (  1648 PWs)   bands (ev):

   -17.1466 -17.1427 -17.0789 -17.0294 -17.0140 -16.9689 -16.9434 -16.9224
   -16.8532 -16.8488  -2.4377   0.3190   4.3274   5.4559   9.4472  11.0814
    12.7473  13.4635

     occupation numbers 
     1.0000   1.0000   1.0000   1.0000   1.0000   1.0000   1.0000   1.0000
     1.0000   1.0000   1.0000   1.0000   1.0000   1.0000   0.0000   0.0000
     0.0000   0.0000

          k =-0.4395-0.1088 0.2176 (  1656 PWs)   bands (ev):

   -17.1433 -17.1406 -17.0883 -17.0356 -17.0136 -16.9733 -16.9342 -16.9119
   -16.8567 -16.8526  -2.9271   1.0676   4.5943   5.5588   9.5183  10.8288
    12.2418  13.2653

     occupation numbers 
     1.0000   1.0000   1.0000   1.0000   1.0000   1.0000   1.0000   1.0000
     1.0000   1.0000   1.0000   1.0000   1.0000   1.0000   0.0000   0.0000
     0.0000   0.0000

          k =-0.3829-0.0544 0.1632 (  1650 PWs)   bands (ev):

   -17.1421 -17.1341 -17.0983 -17.0442 -17.0182 -16.9715 -16.9242 -16.8998
   -16.8640 -16.8561  -3.4381   1.9968   4.9666   5.8125   9.5666  10.2598
    12.1909  13.1941

     occupation numbers 
     1.0000   1.0000   1.0000   1.0000   1.0000   1.0000   1.0000   1.0000
     1.0000   1.0000   1.0000   1.0000   1.0000   1.0000   0.0000   0.0000
     0.0000   0.0000

          k =-0.2132 0.1088-0.0000 (  1648 PWs)   bands (ev):

   -17.1426 -17.1224 -17.0946 -17.0690 -17.0546 -16.9353 -16.9044 -16.8948
   -16.8830 -16.8591  -4.3328   4.0931   6.0670   6.9136   9.7655   9.9472
    11.5830  11.8204

     occupation numbers 
     1.0000   1.0000   1.0000   1.0000   1.0000   1.0000   1.0000   1.0000
     1.0000   1.0000   1.0000   1.0000   1.0000   1.0134   0.0000   0.0000
     0.0000   0.0000

          k =-0.1044 0.1088 0.0000 (  1655 PWs)   bands (ev):

   -17.1382 -17.1171 -17.0937 -17.0740 -17.0714 -16.9195 -16.9034 -16.8907
   -16.8890 -16.8657  -4.5932   5.1917   6.7720   7.5177   8.9469  10.3083
    10.6222  10.9699

     occupation numbers 
     1.0000   1.0000   1.0000   1.0000   1.0000   1.0000   1.0000   1.0000
     1.0000   1.0000   1.0000   1.0000   1.0019   0.5469   0.0000   0.0000
     0.0000   0.0000

          k =-0.0479 0.1632-0.0544 (  1649 PWs)   bands (ev):

   -17.1381 -17.1183 -17.0976 -17.0734 -17.0630 -16.9264 -16.8983 -16.8968
   -16.8846 -16.8652  -4.5220   4.8736   6.8781   6.9648   9.1902   9.9927
    11.0531  11.2980

     occupation numbers 
     1.0000   1.0000   1.0000   1.0000   1.0000   1.0000   1.0000   1.0000
     1.0000   1.0000   1.0000   1.0000   1.0087   1.0233   0.0000   0.0000
     0.0000   0.0000

          k = 0.0087 0.2176-0.1088 (  1648 PWs)   bands (ev):

   -17.1388 -17.1206 -17.1033 -17.0659 -17.0509 -16.9370 -16.9077 -16.8897
   -16.8829 -16.8627  -4.3103   4.0921   6.1469   6.8906   9.4166   9.8591
    11.5173  12.0245

     occupation numbers 
     1.0000   1.0000   1.0000   1.0000   1.0000   1.0000   1.0000   1.0000
     1.0000   1.0000   1.0000   1.0000   1.0000   1.0102   0.0000   0.0000
     0.0000   0.0000

          k = 0.0653 0.2720-0.1632 (  1648 PWs)   bands (ev):

   -17.1404 -17.1250 -17.1029 -17.0565 -17.0396 -16.9462 -16.9165 -16.8955
   -16.8749 -16.8590  -3.9658   3.0452   5.5556   6.6448   9.3779  10.1571
    11.9964  12.4469

     occupation numbers 
     1.0000   1.0000   1.0000   1.0000   1.0000   1.0000   1.0000   1.0000
     1.0000   1.0000   1.0000   1.0000   1.0000   1.0002   0.0000   0.0000
     0.0000   0.0000

          k = 0.1218 0.3264-0.2176 (  1654 PWs)   bands (ev):

   -17.1418 -17.1306 -17.0971 -17.0482 -17.0311 -16.9518 -16.9242 -16.9055
   -16.8671 -16.8559  -3.5073   1.9326   5.1939   6.3127   9.1518  10.6503
    12.0966  12.9346

     occupation numbers 
     1.0000   1.0000   1.0000   1.0000   1.0000   1.0000   1.0000   1.0000
     1.0000   1.0000   1.0000   1.0000   1.0000   1.0000   0.0000   0.0000
     0.0000   0.0000

          k = 0.1784 0.3807-0.2720 (  1653 PWs)   bands (ev):

   -17.1424 -17.1351 -17.0905 -17.0419 -17.0268 -16.9525 -16.9307 -16.9151
   -16.8616 -16.8540  -2.9867   0.9306   4.9943   6.0316   8.9696  10.8709
    12.0679  13.7367

     occupation numbers 
     1.0000   1.0000   1.0000   1.0000   1.0000   1.0000   1.0000   1.0000
     1.0000   1.0000   1.0000   1.0000   1.0000   1.0000   0.0000   0.0000
     0.0000   0.0000

          k = 0.2350 0.4351-0.3264 (  1652 PWs)   bands (ev):

   -17.1424 -17.1376 -17.0864 -17.0379 -17.0261 -16.9496 -16.9367 -16.9207
   -16.8587 -16.8531  -2.5627   0.2552   4.9093   5.8721   8.8729  10.9016
    12.0318  14.6392

     occupation numbers 
     1.0000   1.0000   1.0000   1.0000   1.0000   1.0000   1.0000   1.0000
     1.0000   1.0000   1.0000   1.0000   1.0000   1.0000   0.0000   0.0000
     0.0000   0.0000

          k =-0.4438-0.2176 0.3264 (  1654 PWs)   bands (ev):

   -17.1425 -17.1376 -17.0864 -17.0379 -17.0261 -16.9496 -16.9367 -16.9206
   -16.8586 -16.8531  -2.5631   0.2555   4.9104   5.8710   8.8729  10.9011
    12.0325  14.6448

     occupation numbers 
     1.0000   1.0000   1.0000   1.0000   1.0000   1.0000   1.0000   1.0000
     1.0000   1.0000   1.0000   1.0000   1.0000   1.0000   0.0000   0.0000
     0.0000   0.0000

          k =-0.3873-0.1632 0.2720 (  1655 PWs)   bands (ev):

   -17.1424 -17.1351 -17.0906 -17.0418 -17.0268 -16.9526 -16.9309 -16.9149
   -16.8615 -16.8540  -2.9875   0.9311   4.9973   6.0288   8.9695  10.8706
    12.0696  13.7425

     occupation numbers 
     1.0000   1.0000   1.0000   1.0000   1.0000   1.0000   1.0000   1.0000
     1.0000   1.0000   1.0000   1.0000   1.0000   1.0000   0.0000   0.0000
     0.0000   0.0000

          k =-0.3307-0.1088 0.2176 (  1651 PWs)   bands (ev):

   -17.1418 -17.1307 -17.0972 -17.0482 -17.0310 -16.9519 -16.9243 -16.9053
   -16.8670 -16.8559  -3.5080   1.9328   5.1980   6.3094   9.1516  10.6530
    12.0978  12.9356

     occupation numbers 
     1.0000   1.0000   1.0000   1.0000   1.0000   1.0000   1.0000   1.0000
     1.0000   1.0000   1.0000   1.0000   1.0000   1.0000   0.0000   0.0000
     0.0000   0.0000

          k =-0.2741-0.0544 0.1632 (  1648 PWs)   bands (ev):

   -17.1404 -17.1250 -17.1030 -17.0565 -17.0395 -16.9463 -16.9166 -16.8954
   -16.8747 -16.8590  -3.9664   3.0447   5.5602   6.6420   9.3769  10.1630
    11.9970  12.4438

     occupation numbers 
     1.0000   1.0000   1.0000   1.0000   1.0000   1.0000   1.0000   1.0000
     1.0000   1.0000   1.0000   1.0000   1.0000   1.0002   0.0000   0.0000
     0.0000   0.0000

          k = 0.0087 0.2176-0.0000 (  1638 PWs)   bands (ev):

   -17.1361 -17.1202 -17.1057 -17.0691 -17.0505 -16.9401 -16.8989 -16.8871
   -16.8858 -16.8667  -4.3983   4.5593   6.5281   6.5326   9.2636   9.8519
    11.6580  11.7322

     occupation numbers 
     1.0000   1.0000   1.0000   1.0000   1.0000   1.0000   1.0000   1.0000
     1.0000   1.0000   1.0000   1.0000   1.0000   1.0000   0.0000   0.0000
     0.0000   0.0000

          k = 0.0653 0.2720-0.0544 (  1647 PWs)   bands (ev):

   -17.1337 -17.1241 -17.1120 -17.0601 -17.0376 -16.9525 -16.9088 -16.8832
   -16.8779 -16.8680  -4.1364   3.6632   6.1567   6.2083   9.1959   9.8847
    12.1468  12.3519

     occupation numbers 
     1.0000   1.0000   1.0000   1.0000   1.0000   1.0000   1.0000   1.0000
     1.0000   1.0000   1.0000   1.0000   1.0000   1.0000   0.0000   0.0000
     0.0000   0.0000

          k = 0.1218 0.3264-0.1088 (  1653 PWs)   bands (ev):

   -17.1350 -17.1282 -17.1103 -17.0500 -17.0274 -16.9612 -16.9192 -16.8893
   -16.8709 -16.8634  -3.7466   2.5727   5.7147   5.9178   9.2764  10.0960
    12.3498  12.5647

     occupation numbers 
     1.0000   1.0000   1.0000   1.0000   1.0000   1.0000   1.0000   1.0000
     1.0000   1.0000   1.0000   1.0000   1.0000   1.0000   0.0000   0.0000
     0.0000   0.0000

          k = 0.1784 0.3807-0.1632 (  1653 PWs)   bands (ev):

   -17.1399 -17.1313 -17.1020 -17.0406 -17.0226 -16.9638 -16.9289 -16.9001
   -16.8658 -16.8568  -3.2555   1.5004   5.2568   5.7659   9.1088  10.6315
    12.5297  12.6243

     occupation numbers 
     1.0000   1.0000   1.0000   1.0000   1.0000   1.0000   1.0000   1.0000
     1.0000   1.0000   1.0000   1.0000   1.0000   1.0000   0.0000   0.0000
     0.0000   0.0000

          k = 0.2350 0.4351-0.2176 (  1650 PWs)   bands (ev):

   -17.1448 -17.1331 -17.0924 -17.0331 -17.0236 -16.9598 -16.9375 -16.9114
   -16.8624 -16.8513  -2.7408   0.6028   4.8872   5.7389   8.9568  10.9366
    12.3825  13.3965

     occupation numbers 
     1.0000   1.0000   1.0000   1.0000   1.0000   1.0000   1.0000   1.0000
     1.0000   1.0000   1.0000   1.0000   1.0000   1.0000   0.0000   0.0000
     0.0000   0.0000

          k =-0.4438-0.2176 0.4351 (  1646 PWs)   bands (ev):

   -17.1483 -17.1340 -17.0849 -17.0318 -17.0246 -16.9515 -16.9442 -16.9207
   -16.8607 -16.8479  -2.4346   0.1465   4.6390   5.8338   8.8931  11.0846
    12.1761  14.4888

     occupation numbers 
     1.0000   1.0000   1.0000   1.0000   1.0000   1.0000   1.0000   1.0000
     1.0000   1.0000   1.0000   1.0000   1.0000   1.0000   0.0000   0.0000
     0.0000   0.0000

          k =-0.3873-0.1632 0.3807 (  1648 PWs)   bands (ev):

   -17.1500 -17.1336 -17.0820 -17.0385 -17.0230 -16.9504 -16.9375 -16.9265
   -16.8611 -16.8467  -2.6308   0.4348   4.5328   6.0419   8.9262  11.2495
    11.9769  14.8555

     occupation numbers 
     1.0000   1.0000   1.0000   1.0000   1.0000   1.0000   1.0000   1.0000
     1.0000   1.0000   1.0000   1.0000   1.0000   1.0000   0.0000   0.0000
     0.0000   0.0000

          k =-0.3307-0.1088 0.3264 (  1650 PWs)   bands (ev):

   -17.1498 -17.1314 -17.0848 -17.0458 -17.0261 -16.9494 -16.9290 -16.9230
   -16.8641 -16.8478  -3.1235   1.2463   4.5948   6.3450   9.0398  11.4493
    11.7497  13.8167

     occupation numbers 
     1.0000   1.0000   1.0000   1.0000   1.0000   1.0000   1.0000   1.0000
     1.0000   1.0000   1.0000   1.0000   1.0000   1.0000   0.0000   0.0000
     0.0000   0.0000

          k =-0.2741-0.0544 0.2720 (  1650 PWs)   bands (ev):

   -17.1477 -17.1275 -17.0916 -17.0524 -17.0348 -16.9430 -16.9277 -16.9085
   -16.8698 -16.8510  -3.6303   2.2452   4.8735   6.7090   9.1816  11.4008
    11.5132  12.8566

     occupation numbers 
     1.0000   1.0000   1.0000   1.0000   1.0000   1.0000   1.0000   1.0000
     1.0000   1.0000   1.0000   1.0000   1.0000   1.0007   0.0000   0.0000
     0.0000   0.0000

          k =-0.2176 0.0000 0.2176 (  1644 PWs)   bands (ev):

   -17.1442 -17.1232 -17.0976 -17.0592 -17.0468 -16.9331 -16.9235 -16.8970
   -16.8766 -16.8560  -4.0487   3.2131   5.4581   7.0657   9.1915  11.0019
    11.0805  12.4907

     occupation numbers 
     1.0000   1.0000   1.0000   1.0000   1.0000   1.0000   1.0000   1.0000
     1.0000   1.0000   1.0000   1.0000   1.0000   1.0538   0.0000   0.0000
     0.0000   0.0000

          k = 0.1175 0.2176-0.0000 (  1649 PWs)   bands (ev):

   -17.1281 -17.1229 -17.1150 -17.0633 -17.0459 -16.9414 -16.9093 -16.8823
   -16.8781 -16.8730  -4.2877   4.0916   6.2328   6.8635   9.2380   9.6733
    11.3363  12.2627

     occupation numbers 
     1.0000   1.0000   1.0000   1.0000   1.0000   1.0000   1.0000   1.0000
     1.0000   1.0000   1.0000   1.0000   1.0000   1.0072   0.0000   0.0000
     0.0000   0.0000

          k = 0.1741 0.2720-0.0544 (  1659 PWs)   bands (ev):

   -17.1307 -17.1229 -17.1174 -17.0540 -17.0346 -16.9509 -16.9187 -16.8868
   -16.8720 -16.8683  -3.9377   3.0071   5.6588   6.6226   9.1886  10.0990
    11.7897  12.5113

     occupation numbers 
     1.0000   1.0000   1.0000   1.0000   1.0000   1.0000   1.0000   1.0000
     1.0000   1.0000   1.0000   1.0000   1.0000   1.0001   0.0000   0.0000
     0.0000   0.0000

          k = 0.2306 0.3264-0.1088 (  1650 PWs)   bands (ev):

   -17.1381 -17.1257 -17.1082 -17.0449 -17.0275 -16.9555 -16.9271 -16.8985
   -16.8671 -16.8605  -3.4750   1.8878   5.2590   6.3192   8.9990  10.6245
    12.0402  12.8105

     occupation numbers 
     1.0000   1.0000   1.0000   1.0000   1.0000   1.0000   1.0000   1.0000
     1.0000   1.0000   1.0000   1.0000   1.0000   1.0000   0.0000   0.0000
     0.0000   0.0000

          k = 0.2872 0.3807-0.1632 (  1649 PWs)   bands (ev):

   -17.1444 -17.1272 -17.0985 -17.0368 -17.0267 -16.9537 -16.9345 -16.9103
   -16.8654 -16.8529  -2.9537   0.8940   5.0016   6.0695   8.8440  10.8779
    12.0064  13.6461

     occupation numbers 
     1.0000   1.0000   1.0000   1.0000   1.0000   1.0000   1.0000   1.0000
     1.0000   1.0000   1.0000   1.0000   1.0000   1.0000   0.0000   0.0000
     0.0000   0.0000

          k =-0.3916-0.2720 0.4895 (  1642 PWs)   bands (ev):

   -17.1492 -17.1272 -17.0913 -17.0306 -17.0300 -16.9468 -16.9420 -16.9187
   -16.8656 -16.8475  -2.5401   0.2405   4.8635   5.9267   8.7712  10.9443
    11.9606  14.6594

     occupation numbers 
     1.0000   1.0000   1.0000   1.0000   1.0000   1.0000   1.0000   1.0000
     1.0000   1.0000   1.0000   1.0000   1.0000   1.0000   0.0000   0.0000
     0.0000   0.0000

          k =-0.3351-0.2176 0.4351 (  1643 PWs)   bands (ev):

   -17.1518 -17.1261 -17.0886 -17.0368 -17.0256 -16.9493 -16.9373 -16.9213
   -16.8673 -16.8448  -2.5635   0.2749   4.8342   5.9140   8.7941  10.9874
    11.9687  14.9536

     occupation numbers 
     1.0000   1.0000   1.0000   1.0000   1.0000   1.0000   1.0000   1.0000
     1.0000   1.0000   1.0000   1.0000   1.0000   1.0000   0.0000   0.0000
     0.0000   0.0000

          k =-0.2785-0.1632 0.3807 (  1648 PWs)   bands (ev):

   -17.1522 -17.1241 -17.0910 -17.0433 -17.0257 -16.9528 -16.9287 -16.9172
   -16.8705 -16.8451  -2.9984   0.9690   4.9184   6.0338   8.9104  11.0340
    12.0164  14.0862

     occupation numbers 
     1.0000   1.0000   1.0000   1.0000   1.0000   1.0000   1.0000   1.0000
     1.0000   1.0000   1.0000   1.0000   1.0000   1.0000   0.0000   0.0000
     0.0000   0.0000

          k =-0.2219-0.1088 0.3264 (  1647 PWs)   bands (ev):

   -17.1501 -17.1214 -17.0970 -17.0499 -17.0316 -16.9504 -16.9232 -16.9065
   -16.8749 -16.8484  -3.5184   1.9712   5.1371   6.2693   9.1015  10.9547
    12.0254  13.0806

     occupation numbers 
     1.0000   1.0000   1.0000   1.0000   1.0000   1.0000   1.0000   1.0000
     1.0000   1.0000   1.0000   1.0000   1.0000   1.0000   0.0000   0.0000
     0.0000   0.0000

          k =-0.1654-0.0544 0.2720 (  1645 PWs)   bands (ev):

   -17.1458 -17.1189 -17.1025 -17.0572 -17.0417 -16.9432 -16.9176 -16.8955
   -16.8798 -16.8543  -3.9725   3.0671   5.5318   6.5812   9.3143  10.5214
    11.8413  12.4813

     occupation numbers 
     1.0000   1.0000   1.0000   1.0000   1.0000   1.0000   1.0000   1.0000
     1.0000   1.0000   1.0000   1.0000   1.0000   1.0001   0.0000   0.0000
     0.0000   0.0000

          k =-0.1088 0.0000 0.2176 (  1646 PWs)   bands (ev):

   -17.1406 -17.1196 -17.1017 -17.0653 -17.0534 -16.9332 -16.9110 -16.8938
   -16.8785 -16.8624  -4.3115   4.0818   6.1593   6.8788   9.4138   9.9184
    11.4653  12.0465

     occupation numbers 
     1.0000   1.0000   1.0000   1.0000   1.0000   1.0000   1.0000   1.0000
     1.0000   1.0000   1.0000   1.0000   1.0000   1.0088   0.0000   0.0000
     0.0000   0.0000

          k = 0.0000 0.0000 0.2176 (  1641 PWs)   bands (ev):

   -17.1386 -17.1199 -17.1022 -17.0688 -17.0538 -16.9354 -16.9015 -16.8981
   -16.8724 -16.8696  -4.3998   4.5408   6.4180   6.6611   9.2542   9.9149
    11.5200  11.8422

     occupation numbers 
     1.0000   1.0000   1.0000   1.0000   1.0000   1.0000   1.0000   1.0000
     1.0000   1.0000   1.0000   1.0000   1.0000   1.0003   0.0000   0.0000
     0.0000   0.0000

          k = 0.2263 0.2176-0.0000 (  1670 PWs)   bands (ev):

   -17.1297 -17.1216 -17.1186 -17.0554 -17.0374 -16.9454 -16.9209 -16.8865
   -16.8735 -16.8681  -4.0024   3.1850   5.5378   7.0499   8.9577  10.7027
    10.9683  12.6132

     occupation numbers 
     1.0000   1.0000   1.0000   1.0000   1.0000   1.0000   1.0000   1.0000
     1.0000   1.0000   1.0000   1.0000   1.0000   1.0483   0.0000   0.0000
     0.0000   0.0000

          k = 0.2828 0.2720-0.0544 (  1662 PWs)   bands (ev):

   -17.1382 -17.1257 -17.1076 -17.0471 -17.0272 -16.9531 -16.9282 -16.8998
   -16.8647 -16.8622  -3.5741   2.1687   4.9721   6.7021   9.0169  11.1560
    11.4416  12.7200

     occupation numbers 
     1.0000   1.0000   1.0000   1.0000   1.0000   1.0000   1.0000   1.0000
     1.0000   1.0000   1.0000   1.0000   1.0000   1.0006   0.0000   0.0000
     0.0000   0.0000

          k = 0.3394 0.3264-0.1088 (  1644 PWs)   bands (ev):

   -17.1459 -17.1272 -17.0968 -17.0390 -17.0227 -16.9548 -16.9339 -16.9145
   -16.8636 -16.8523  -3.0622   1.1669   4.6626   6.3345   8.9275  11.4962
    11.5321  13.5123

     occupation numbers 
     1.0000   1.0000   1.0000   1.0000   1.0000   1.0000   1.0000   1.0000
     1.0000   1.0000   1.0000   1.0000   1.0000   1.0000   0.0000   0.0000
     0.0000   0.0000

          k =-0.3394-0.3264 0.5439 (  1650 PWs)   bands (ev):

   -17.1519 -17.1267 -17.0893 -17.0309 -17.0247 -16.9503 -16.9417 -16.9238
   -16.8646 -16.8451  -2.5801   0.3842   4.5502   6.0207   8.8517  11.3363
    11.7988  14.6641

     occupation numbers 
     1.0000   1.0000   1.0000   1.0000   1.0000   1.0000   1.0000   1.0000
     1.0000   1.0000   1.0000   1.0000   1.0000   1.0000   0.0000   0.0000
     0.0000   0.0000

          k =-0.2828-0.2720 0.4895 (  1636 PWs)   bands (ev):

   -17.1553 -17.1246 -17.0874 -17.0303 -17.0237 -16.9532 -16.9423 -16.9228
   -16.8674 -16.8413  -2.4273   0.1607   4.6026   5.7979   8.8447  11.2288
    12.0332  14.9302

     occupation numbers 
     1.0000   1.0000   1.0000   1.0000   1.0000   1.0000   1.0000   1.0000
     1.0000   1.0000   1.0000   1.0000   1.0000   1.0000   0.0000   0.0000
     0.0000   0.0000

          k =-0.2263-0.2176 0.4351 (  1647 PWs)   bands (ev):

   -17.1560 -17.1215 -17.0914 -17.0372 -17.0202 -16.9615 -16.9336 -16.9153
   -16.8718 -16.8411  -2.7674   0.6691   4.8045   5.6861   8.9229  11.1884
    12.2665  13.8543

     occupation numbers 
     1.0000   1.0000   1.0000   1.0000   1.0000   1.0000   1.0000   1.0000
     1.0000   1.0000   1.0000   1.0000   1.0000   1.0000   0.0000   0.0000
     0.0000   0.0000

          k =-0.1697-0.1632 0.3807 (  1648 PWs)   bands (ev):

   -17.1538 -17.1177 -17.0995 -17.0445 -17.0231 -16.9626 -16.9252 -16.9039
   -16.8772 -16.8444  -3.2861   1.5800   5.1488   5.6950   9.0750  11.0714
    12.4434  12.8675

     occupation numbers 
     1.0000   1.0000   1.0000   1.0000   1.0000   1.0000   1.0000   1.0000
     1.0000   1.0000   1.0000   1.0000   1.0000   1.0000   0.0000   0.0000
     0.0000   0.0000

          k =-0.1131-0.1088 0.3264 (  1639 PWs)   bands (ev):

   -17.1490 -17.1130 -17.1091 -17.0526 -17.0314 -16.9571 -16.9168 -16.8912
   -16.8838 -16.8508  -3.7701   2.6362   5.6272   5.8267   9.2337  10.6252
    12.4223  12.4816

     occupation numbers 
     1.0000   1.0000   1.0000   1.0000   1.0000   1.0000   1.0000   1.0000
     1.0000   1.0000   1.0000   1.0000   1.0000   1.0000   0.0000   0.0000
     0.0000   0.0000

          k =-0.0566-0.0544 0.2720 (  1638 PWs)   bands (ev):

   -17.1431 -17.1171 -17.1075 -17.0612 -17.0424 -16.9475 -16.9081 -16.8915
   -16.8797 -16.8598  -4.1495   3.6820   6.0746   6.1930   9.2278  10.1936
    12.0872  12.3369

     occupation numbers 
     1.0000   1.0000   1.0000   1.0000   1.0000   1.0000   1.0000   1.0000
     1.0000   1.0000   1.0000   1.0000   1.0000   1.0000   0.0000   0.0000
     0.0000   0.0000

          k = 0.0522-0.0544 0.2720 (  1643 PWs)   bands (ev):

   -17.1418 -17.1221 -17.1036 -17.0617 -17.0435 -16.9469 -16.9052 -16.8980
   -16.8710 -16.8642  -4.1560   3.6278   6.0810   6.3437   9.2471  10.0142
    12.1732  12.3479

     occupation numbers 
     1.0000   1.0000   1.0000   1.0000   1.0000   1.0000   1.0000   1.0000
     1.0000   1.0000   1.0000   1.0000   1.0000   1.0000   0.0000   0.0000
     0.0000   0.0000

          k = 0.3351 0.2176 0.0000 (  1652 PWs)   bands (ev):

   -17.1384 -17.1267 -17.1080 -17.0459 -17.0219 -16.9619 -16.9267 -16.8975
   -16.8644 -16.8619  -3.5487   2.2058   4.8746   6.4120   9.5202  10.3804
    12.2704  12.2750

     occupation numbers 
     1.0000   1.0000   1.0000   1.0000   1.0000   1.0000   1.0000   1.0000
     1.0000   1.0000   1.0000   1.0000   1.0000   1.0000   0.0000   0.0000
     0.0000   0.0000

          k = 0.3916 0.2720-0.0544 (  1657 PWs)   bands (ev):

   -17.1473 -17.1296 -17.0949 -17.0372 -17.0136 -16.9677 -16.9343 -16.9136
   -16.8618 -16.8509  -3.0582   1.3196   4.3821   6.0737   9.5003  10.9073
    12.2336  12.8721

     occupation numbers 
     1.0000   1.0000   1.0000   1.0000   1.0000   1.0000   1.0000   1.0000
     1.0000   1.0000   1.0000   1.0000   1.0000   1.0000   0.0000   0.0000
     0.0000   0.0000

          k =-0.2872-0.3807 0.5983 (  1647 PWs)   bands (ev):

   -17.1545 -17.1304 -17.0840 -17.0278 -17.0133 -16.9651 -16.9442 -16.9258
   -16.8612 -16.8423  -2.5417   0.5097   4.1445   5.7599   9.3824  11.0909
    12.5652  13.6638

     occupation numbers 
     1.0000   1.0000   1.0000   1.0000   1.0000   1.0000   1.0000   1.0000
     1.0000   1.0000   1.0000   1.0000   1.0000   1.0000   0.0000   0.0000
     0.0000   0.0000

          k =-0.2306-0.3264 0.5439 (  1647 PWs)   bands (ev):

   -17.1588 -17.1296 -17.0788 -17.0217 -17.0157 -16.9618 -16.9529 -16.9286
   -16.8624 -16.8375  -2.2336   0.0798   4.1047   5.5451   9.2918  11.1275
    12.8120  14.6474

     occupation numbers 
     1.0000   1.0000   1.0000   1.0000   1.0000   1.0000   1.0000   1.0000
     1.0000   1.0000   1.0000   1.0000   1.0000   1.0000   0.0000   0.0000
     0.0000   0.0000

          k =-0.1741-0.2720 0.4895 (  1646 PWs)   bands (ev):

   -17.1599 -17.1277 -17.0806 -17.0288 -17.0107 -16.9715 -16.9429 -16.9243
   -16.8652 -16.8367  -2.4437   0.3657   4.2270   5.4676   9.2686  11.2067
    12.9281  13.7611

     occupation numbers 
     1.0000   1.0000   1.0000   1.0000   1.0000   1.0000   1.0000   1.0000
     1.0000   1.0000   1.0000   1.0000   1.0000   1.0000   0.0000   0.0000
     0.0000   0.0000

          k =-0.1175-0.2176 0.4351 (  1651 PWs)   bands (ev):

   -17.1577 -17.1251 -17.0883 -17.0373 -17.0126 -16.9739 -16.9320 -16.9140
   -16.8693 -16.8399  -2.9444   1.1283   4.4961   5.5461   9.3174  11.2023
    12.4625  13.2648

     occupation numbers 
     1.0000   1.0000   1.0000   1.0000   1.0000   1.0000   1.0000   1.0000
     1.0000   1.0000   1.0000   1.0000   1.0000   1.0000   0.0000   0.0000
     0.0000   0.0000

          k =-0.0609-0.1632 0.3807 (  1646 PWs)   bands (ev):

   -17.1528 -17.1223 -17.0984 -17.0457 -17.0209 -16.9686 -16.9226 -16.9009
   -16.8741 -16.8465  -3.4503   2.0340   4.9148   5.7735   9.3783  10.6904
    12.2592  13.1497

     occupation numbers 
     1.0000   1.0000   1.0000   1.0000   1.0000   1.0000   1.0000   1.0000
     1.0000   1.0000   1.0000   1.0000   1.0000   1.0000   0.0000   0.0000
     0.0000   0.0000

          k =-0.0044-0.1088 0.3264 (  1643 PWs)   bands (ev):

   -17.1465 -17.1212 -17.1047 -17.0541 -17.0320 -16.9591 -16.9136 -16.8935
   -16.8754 -16.8555  -3.8648   2.9060   5.4821   6.0847   9.2683  10.2343
    12.4078  12.7816

     occupation numbers 
     1.0000   1.0000   1.0000   1.0000   1.0000   1.0000   1.0000   1.0000
     1.0000   1.0000   1.0000   1.0000   1.0000   1.0000   0.0000   0.0000
     0.0000   0.0000

          k = 0.1044-0.1088 0.3264 (  1639 PWs)   bands (ev):

   -17.1454 -17.1273 -17.0991 -17.0533 -17.0359 -16.9544 -16.9140 -16.9002
   -16.8675 -16.8581  -3.7987   2.5400   5.6963   6.1011   9.4407  10.1092
    12.3904  12.6485

     occupation numbers 
     1.0000   1.0000   1.0000   1.0000   1.0000   1.0000   1.0000   1.0000
     1.0000   1.0000   1.0000   1.0000   1.0000   1.0000   0.0000   0.0000
     0.0000   0.0000

          k = 0.1610-0.0544 0.2720 (  1642 PWs)   bands (ev):

   -17.1448 -17.1247 -17.0974 -17.0584 -17.0446 -16.9414 -16.9153 -16.9006
   -16.8722 -16.8573  -3.9922   2.9890   5.6653   6.6891   9.5031  10.1278
    12.0031  12.4237

     occupation numbers 
     1.0000   1.0000   1.0000   1.0000   1.0000   1.0000   1.0000   1.0000
     1.0000   1.0000   1.0000   1.0000   1.0000   1.0005   0.0000   0.0000
     0.0000   0.0000

          k = 0.4438 0.2176-0.0000 (  1662 PWs)   bands (ev):

   -17.1471 -17.1323 -17.0953 -17.0317 -17.0018 -16.9852 -16.9374 -16.9084
   -16.8604 -16.8506  -2.9386   1.2253   4.3739   5.5803  10.0617  10.1517
    11.8439  13.8083

     occupation numbers 
     1.0000   1.0000   1.0000   1.0000   1.0000   1.0000   1.0000   1.0000
     1.0000   1.0000   1.0000   1.0000   1.0000   1.0000   0.0000   0.0000
     0.0000   0.0000

          k =-0.2350-0.4351 0.6527 (  1648 PWs)   bands (ev):

   -17.1552 -17.1347 -17.0803 -17.0213 -16.9995 -16.9849 -16.9490 -16.9242
   -16.8577 -16.8411  -2.4140   0.4923   3.9708   5.2775  10.0619  10.8290
    11.9010  14.2567

     occupation numbers 
     1.0000   1.0000   1.0000   1.0000   1.0000   1.0000   1.0000   1.0000
     1.0000   1.0000   1.0000   1.0000   1.0000   1.0000   0.0000   0.0000
     0.0000   0.0000

          k =-0.1784-0.3807 0.5983 (  1646 PWs)   bands (ev):

   -17.1608 -17.1356 -17.0697 -17.0131 -17.0029 -16.9781 -16.9616 -16.9332
   -16.8568 -16.8350  -1.9878  -0.0463   3.7732   5.0899  10.0259  10.9601
    12.9040  14.3165

     occupation numbers 
     1.0000   1.0000   1.0000   1.0000   1.0000   1.0000   1.0000   1.0000
     1.0000   1.0000   1.0000   1.0000   1.0000   1.0000   0.0000   0.0000
     0.0000   0.0000

          k =-0.1218-0.3264 0.5439 (  1647 PWs)   bands (ev):

   -17.1628 -17.1354 -17.0670 -17.0182 -16.9991 -16.9823 -16.9576 -16.9340
   -16.8575 -16.8333  -2.0470   0.0248   3.7584   5.0792  10.0045  11.0229
    13.4379  14.0099

     occupation numbers 
     1.0000   1.0000   1.0000   1.0000   1.0000   1.0000   1.0000   1.0000
     1.0000   1.0000   1.0000   1.0000   1.0000   1.0000   0.0000   0.0000
     0.0000   0.0000

          k =-0.0653-0.2720 0.4895 (  1651 PWs)   bands (ev):

   -17.1610 -17.1341 -17.0727 -17.0284 -17.0036 -16.9821 -16.9429 -16.9279
   -16.8597 -16.8360  -2.5167   0.6202   3.9365   5.2510  10.0051  11.1083
    12.2583  14.2614

     occupation numbers 
     1.0000   1.0000   1.0000   1.0000   1.0000   1.0000   1.0000   1.0000
     1.0000   1.0000   1.0000   1.0000   1.0000   1.0000   0.0000   0.0000
     0.0000   0.0000

          k =-0.0087-0.2176 0.4351 (  1649 PWs)   bands (ev):

   -17.1561 -17.1319 -17.0842 -17.0378 -17.0136 -16.9755 -16.9307 -16.9151
   -16.8632 -16.8424  -3.0343   1.3298   4.3457   5.5622   9.9994  10.6148
    11.9643  13.9350

     occupation numbers 
     1.0000   1.0000   1.0000   1.0000   1.0000   1.0000   1.0000   1.0000
     1.0000   1.0000   1.0000   1.0000   1.0000   1.0000   0.0000   0.0000
     0.0000   0.0000

          k = 0.0479-0.1632 0.3807 (  1639 PWs)   bands (ev):

   -17.1499 -17.1293 -17.0951 -17.0459 -17.0249 -16.9660 -16.9216 -16.9026
   -16.8666 -16.8509  -3.4744   1.9823   4.9911   5.8968   9.6375  10.2577
    12.2456  13.2342

     occupation numbers 
     1.0000   1.0000   1.0000   1.0000   1.0000   1.0000   1.0000   1.0000
     1.0000   1.0000   1.0000   1.0000   1.0000   1.0000   0.0000   0.0000
     0.0000   0.0000

          k = 0.1567-0.1632 0.3807 (  1643 PWs)   bands (ev):

   -17.1486 -17.1331 -17.0913 -17.0452 -17.0327 -16.9570 -16.9226 -16.9065
   -16.8625 -16.8529  -3.3594   1.5097   5.3011   5.9591   9.3575  10.6066
    12.5790  12.6862

     occupation numbers 
     1.0000   1.0000   1.0000   1.0000   1.0000   1.0000   1.0000   1.0000
     1.0000   1.0000   1.0000   1.0000   1.0000   1.0000   0.0000   0.0000
     0.0000   0.0000

          k = 0.2132-0.1088 0.3264 (  1642 PWs)   bands (ev):

   -17.1484 -17.1302 -17.0905 -17.0513 -17.0389 -16.9457 -16.9207 -16.9094
   -16.8659 -16.8528  -3.5765   1.8982   5.3348   6.4175   9.3460  10.6171
    12.1840  12.8250

     occupation numbers 
     1.0000   1.0000   1.0000   1.0000   1.0000   1.0000   1.0000   1.0000
     1.0000   1.0000   1.0000   1.0000   1.0000   1.0000   0.0000   0.0000
     0.0000   0.0000

          k = 0.2698-0.0544 0.2720 (  1642 PWs)   bands (ev):

   -17.1493 -17.1290 -17.0883 -17.0541 -17.0385 -16.9394 -16.9280 -16.9089
   -16.8684 -16.8505  -3.6638   2.2090   4.9707   6.7641   9.2856  11.3888
    11.5429  12.7557

     occupation numbers 
     1.0000   1.0000   1.0000   1.0000   1.0000   1.0000   1.0000   1.0000
     1.0000   1.0000   1.0000   1.0000   1.0000   1.0017   0.0000   0.0000
     0.0000   0.0000

          k = 0.3264 0.0000 0.2176 (  1643 PWs)   bands (ev):

   -17.1474 -17.1305 -17.0914 -17.0515 -17.0304 -16.9542 -16.9220 -16.9074
   -16.8675 -16.8516  -3.6176   2.2767   4.8115   6.4335   9.7419  10.5521
    12.2804  12.5020

     occupation numbers 
     1.0000   1.0000   1.0000   1.0000   1.0000   1.0000   1.0000   1.0000
     1.0000   1.0000   1.0000   1.0000   1.0000   1.0000   0.0000   0.0000
     0.0000   0.0000

          k =-0.1828-0.4895 0.7071 (  1649 PWs)   bands (ev):

   -17.1539 -17.1381 -17.0788 -17.0125 -17.0096 -16.9799 -16.9557 -16.9221
   -16.8549 -16.8417  -2.1924   0.2554   4.0859   4.8620   9.9105  10.2057
    12.2374  15.2641

     occupation numbers 
     1.0000   1.0000   1.0000   1.0000   1.0000   1.0000   1.0000   1.0000
     1.0000   1.0000   1.0000   1.0000   1.0000   1.0000   0.0000   0.0000
     0.0000   0.0000

          k =-0.1262-0.4351 0.6527 (  1647 PWs)   bands (ev):

   -17.1604 -17.1404 -17.0628 -17.0123 -17.0010 -16.9755 -16.9694 -16.9372
   -16.8524 -16.8350  -1.6890  -0.3058   3.7739   4.6403  10.1404  11.2118
    11.9886  14.9807

     occupation numbers 
     1.0000   1.0000   1.0000   1.0000   1.0000   1.0000   1.0000   1.0000
     1.0000   1.0000   1.0000   1.0000   1.0000   1.0000   0.0000   0.0000
     0.0000   0.0000

          k =-0.0696-0.3807 0.5983 (  1649 PWs)   bands (ev):

   -17.1637 -17.1413 -17.0553 -17.0099 -16.9980 -16.9809 -16.9718 -16.9415
   -16.8517 -16.8320  -1.6116  -0.3829   3.5942   4.6672  10.3157  11.5515
    12.8703  13.5857

     occupation numbers 
     1.0000   1.0000   1.0000   1.0000   1.0000   1.0000   1.0000   1.0000
     1.0000   1.0000   1.0000   1.0000   1.0000   1.0000   0.0000   0.0000
     0.0000   0.0000

          k =-0.0131-0.3264 0.5439 (  1652 PWs)   bands (ev):

   -17.1630 -17.1410 -17.0587 -17.0181 -17.0030 -16.9826 -16.9577 -16.9370
   -16.8527 -16.8334  -2.0643   0.0993   3.6474   4.9103  10.5333  11.4127
    12.2231  14.3219

     occupation numbers 
     1.0000   1.0000   1.0000   1.0000   1.0000   1.0000   1.0000   1.0000
     1.0000   1.0000   1.0000   1.0000   1.0000   1.0000   0.0000   0.0000
     0.0000   0.0000

          k = 0.0435-0.2720 0.4895 (  1646 PWs)   bands (ev):

   -17.1587 -17.1393 -17.0704 -17.0302 -17.0108 -16.9773 -16.9407 -16.9270
   -16.8552 -16.8390  -2.5772   0.6335   4.0006   5.3007  10.5352  10.8121
    11.8948  14.3508

     occupation numbers 
     1.0000   1.0000   1.0000   1.0000   1.0000   1.0000   1.0000   1.0000
     1.0000   1.0000   1.0000   1.0000   1.0000   1.0000   0.0000   0.0000
     0.0000   0.0000

          k = 0.1001-0.2176 0.4351 (  1640 PWs)   bands (ev):

   -17.1527 -17.1365 -17.0839 -17.0383 -17.0224 -16.9677 -16.9301 -16.9132
   -16.8589 -16.8469  -3.0209   1.0963   4.6219   5.7116   9.7140  10.7768
    12.2179  13.3919

     occupation numbers 
     1.0000   1.0000   1.0000   1.0000   1.0000   1.0000   1.0000   1.0000
     1.0000   1.0000   1.0000   1.0000   1.0000   1.0000   0.0000   0.0000
     0.0000   0.0000

          k = 0.2089-0.2176 0.4351 (  1652 PWs)   bands (ev):

   -17.1510 -17.1378 -17.0828 -17.0383 -17.0340 -16.9553 -16.9303 -16.9139
   -16.8581 -16.8490  -2.9216   0.6903   4.9657   5.9282   9.2453  10.9930
    12.5601  13.2198

     occupation numbers 
     1.0000   1.0000   1.0000   1.0000   1.0000   1.0000   1.0000   1.0000
     1.0000   1.0000   1.0000   1.0000   1.0000   1.0000   0.0000   0.0000
     0.0000   0.0000

          k = 0.2654-0.1632 0.3807 (  1648 PWs)   bands (ev):

   -17.1512 -17.1344 -17.0832 -17.0455 -17.0368 -16.9461 -16.9257 -16.9181
   -16.8615 -16.8489  -3.1234   0.9673   5.1250   6.1793   9.2104  10.9199
    12.1699  13.5525

     occupation numbers 
     1.0000   1.0000   1.0000   1.0000   1.0000   1.0000   1.0000   1.0000
     1.0000   1.0000   1.0000   1.0000   1.0000   1.0000   0.0000   0.0000
     0.0000   0.0000

          k = 0.3220-0.1088 0.3264 (  1647 PWs)   bands (ev):

   -17.1534 -17.1332 -17.0798 -17.0483 -17.0338 -16.9418 -16.9314 -16.9216
   -16.8628 -16.8459  -3.2132   1.2506   4.7183   6.4381   9.2136  11.6108
    11.7462  13.5599

     occupation numbers 
     1.0000   1.0000   1.0000   1.0000   1.0000   1.0000   1.0000   1.0000
     1.0000   1.0000   1.0000   1.0000   1.0000   1.0000   0.0000   0.0000
     0.0000   0.0000

          k = 0.3786-0.0544 0.2720 (  1637 PWs)   bands (ev):

   -17.1536 -17.1348 -17.0796 -17.0453 -17.0235 -16.9591 -16.9264 -16.9229
   -16.8614 -16.8447  -3.1831   1.4280   4.3625   6.1421   9.7252  11.0631
    12.4894  12.9897

     occupation numbers 
     1.0000   1.0000   1.0000   1.0000   1.0000   1.0000   1.0000   1.0000
     1.0000   1.0000   1.0000   1.0000   1.0000   1.0000   0.0000   0.0000
     0.0000   0.0000

          k = 0.4351-0.0000 0.2176 (  1643 PWs)   bands (ev):

   -17.1503 -17.1383 -17.0837 -17.0376 -17.0095 -16.9794 -16.9313 -16.9150
   -16.8579 -16.8474  -3.0298   1.3324   4.3389   5.5743  10.1202  10.4552
    11.9401  13.9392

     occupation numbers 
     1.0000   1.0000   1.0000   1.0000   1.0000   1.0000   1.0000   1.0000
     1.0000   1.0000   1.0000   1.0000   1.0000   1.0000   0.0000   0.0000
     0.0000   0.0000

          k =-0.0740-0.4895 0.7071 (  1646 PWs)   bands (ev):

   -17.1580 -17.1428 -17.0580 -17.0324 -16.9904 -16.9779 -16.9583 -16.9408
   -16.8501 -16.8370  -1.3405  -0.6928   4.0428   4.3568   9.9495   9.9924
    13.2140  15.2987

     occupation numbers 
     1.0000   1.0000   1.0000   1.0000   1.0000   1.0000   1.0000   1.0000
     1.0000   1.0000   1.0000   1.0000   1.0000   1.0000   0.0000   0.0000
     0.0000   0.0000

          k =-0.0174-0.4351 0.6527 (  1649 PWs)   bands (ev):

   -17.1622 -17.1446 -17.0468 -17.0255 -16.9949 -16.9773 -16.9658 -16.9468
   -16.8486 -16.8333  -1.2958  -0.7104   3.7608   4.3524  10.1536  11.3219
    12.9210  13.7723

     occupation numbers 
     1.0000   1.0000   1.0000   1.0000   1.0000   1.0000   1.0000   1.0000
     1.0000   1.0000   1.0000   1.0000   1.0000   1.0000   0.0000   0.0000
     0.0000   0.0000

          k = 0.0392-0.3807 0.5983 (  1653 PWs)   bands (ev):

   -17.1631 -17.1450 -17.0508 -17.0130 -17.0060 -16.9832 -16.9628 -16.9407
   -16.8488 -16.8331  -1.7834  -0.2195   3.6240   4.6647  10.4230  12.1671
    12.6856  13.0137

     occupation numbers 
     1.0000   1.0000   1.0000   1.0000   1.0000   1.0000   1.0000   1.0000
     1.0000   1.0000   1.0000   1.0000   1.0000   1.0000   0.0000   0.0000
     0.0000   0.0000

          k = 0.0957-0.3264 0.5439 (  1648 PWs)   bands (ev):

   -17.1602 -17.1439 -17.0608 -17.0261 -17.0082 -16.9797 -16.9487 -16.9324
   -16.8507 -16.8370  -2.2344   0.1609   3.8375   5.1326  10.4853  11.1526
    12.6283  14.1891

     occupation numbers 
     1.0000   1.0000   1.0000   1.0000   1.0000   1.0000   1.0000   1.0000
     1.0000   1.0000   1.0000   1.0000   1.0000   1.0000   0.0000   0.0000
     0.0000   0.0000

          k = 0.1523-0.2720 0.4895 (  1647 PWs)   bands (ev):

   -17.1549 -17.1415 -17.0739 -17.0332 -17.0226 -16.9663 -16.9379 -16.9213
   -16.8540 -16.8436  -2.6200   0.4382   4.3533   5.6320   9.6920  11.1541
    12.6868  13.4917

     occupation numbers 
     1.0000   1.0000   1.0000   1.0000   1.0000   1.0000   1.0000   1.0000
     1.0000   1.0000   1.0000   1.0000   1.0000   1.0000   0.0000   0.0000
     0.0000   0.0000

          k =-0.4177 0.4351-0.2176 (  1646 PWs)   bands (ev):

   -17.1527 -17.1407 -17.0753 -17.0387 -17.0336 -16.9509 -16.9362 -16.9195
   -16.8557 -16.8464  -2.6856   0.3094   4.7281   6.0091   9.2073  11.1939
    12.3814  14.2241

     occupation numbers 
     1.0000   1.0000   1.0000   1.0000   1.0000   1.0000   1.0000   1.0000
     1.0000   1.0000   1.0000   1.0000   1.0000   1.0000   0.0000   0.0000
     0.0000   0.0000

          k =-0.3612 0.4895-0.2720 (  1648 PWs)   bands (ev):

   -17.1532 -17.1367 -17.0775 -17.0435 -17.0359 -16.9446 -16.9305 -16.9228
   -16.8596 -16.8461  -2.7850   0.3882   5.0112   6.0408   9.1483  11.0236
    12.1526  14.4792

     occupation numbers 
     1.0000   1.0000   1.0000   1.0000   1.0000   1.0000   1.0000   1.0000
     1.0000   1.0000   1.0000   1.0000   1.0000   1.0000   0.0000   0.0000
     0.0000   0.0000

          k =-0.3046 0.5439-0.3264 (  1653 PWs)   bands (ev):

   -17.1561 -17.1352 -17.0749 -17.0418 -17.0331 -16.9409 -16.9375 -16.9278
   -16.8604 -16.8425  -2.8059   0.5327   4.6404   6.1570   9.1381  11.4816
    12.0103  14.6288

     occupation numbers 
     1.0000   1.0000   1.0000   1.0000   1.0000   1.0000   1.0000   1.0000
     1.0000   1.0000   1.0000   1.0000   1.0000   1.0000   0.0000   0.0000
     0.0000   0.0000

          k =-0.2480 0.5983-0.3807 (  1643 PWs)   bands (ev):

   -17.1580 -17.1372 -17.0716 -17.0369 -17.0215 -16.9595 -16.9384 -16.9287
   -16.8582 -16.8395  -2.7378   0.6723   4.1569   5.8792   9.6136  11.1956
    12.9365  13.7489

     occupation numbers 
     1.0000   1.0000   1.0000   1.0000   1.0000   1.0000   1.0000   1.0000
     1.0000   1.0000   1.0000   1.0000   1.0000   1.0000   0.0000   0.0000
     0.0000   0.0000

          k =-0.1915 0.6527-0.4351 (  1640 PWs)   bands (ev):

   -17.1569 -17.1410 -17.0704 -17.0295 -17.0039 -16.9835 -16.9418 -16.9276
   -16.8542 -16.8398  -2.5718   0.6578   3.9396   5.3301  10.1946  11.0561
    12.0636  14.4430

     occupation numbers 
     1.0000   1.0000   1.0000   1.0000   1.0000   1.0000   1.0000   1.0000
     1.0000   1.0000   1.0000   1.0000   1.0000   1.0000   0.0000   0.0000
     0.0000   0.0000

          k =-0.1349 0.7071-0.4895 (  1646 PWs)   bands (ev):

   -17.1523 -17.1452 -17.0718 -17.0201 -17.0061 -16.9844 -16.9500 -16.9245
   -16.8498 -16.8435  -2.3041   0.3845   4.0837   4.8321   9.9351  10.3901
    12.4807  15.1606

     occupation numbers 
     1.0000   1.0000   1.0000   1.0000   1.0000   1.0000   1.0000   1.0000
     1.0000   1.0000   1.0000   1.0000   1.0000   1.0000   0.0000   0.0000
     0.0000   0.0000

          k =-0.6440 0.2176-0.0000 (  1651 PWs)   bands (ev):

   -17.1591 -17.1452 -17.0517 -17.0336 -17.0013 -16.9675 -16.9634 -16.9394
   -16.8484 -16.8366  -1.5935  -0.4250   4.0988   4.2720   9.8984  10.1825
    14.0293  14.3304

     occupation numbers 
     1.0000   1.0000   1.0000   1.0000   1.0000   1.0000   1.0000   1.0000
     1.0000   1.0000   1.0000   1.0000   1.0000   1.0000   0.0000   0.0000
     0.0000   0.0000

          k =-0.5874 0.2720-0.0544 (  1639 PWs)   bands (ev):

   -17.1610 -17.1462 -17.0533 -17.0167 -17.0097 -16.9833 -16.9564 -16.9366
   -16.8481 -16.8354  -1.9696  -0.0145   3.8015   4.6031  10.2809  11.4787
    12.5301  14.0471

     occupation numbers 
     1.0000   1.0000   1.0000   1.0000   1.0000   1.0000   1.0000   1.0000
     1.0000   1.0000   1.0000   1.0000   1.0000   1.0000   0.0000   0.0000
     0.0000   0.0000

          k =-0.5309 0.3264-0.1088 (  1645 PWs)   bands (ev):

   -17.1599 -17.1457 -17.0583 -17.0286 -17.0043 -16.9848 -16.9475 -16.9320
   -16.8495 -16.8372  -2.2776   0.2160   3.8227   5.1250  10.4599  11.2340
    13.1452  13.7371

     occupation numbers 
     1.0000   1.0000   1.0000   1.0000   1.0000   1.0000   1.0000   1.0000
     1.0000   1.0000   1.0000   1.0000   1.0000   1.0000   0.0000   0.0000
     0.0000   0.0000

          k =-0.4743 0.3807-0.1632 (  1643 PWs)   bands (ev):

   -17.1561 -17.1439 -17.0673 -17.0350 -17.0217 -16.9643 -16.9418 -16.9248
   -16.8521 -16.8419  -2.5157   0.2831   4.1917   5.6886   9.7351  11.2337
    12.9965  14.1230

     occupation numbers 
     1.0000   1.0000   1.0000   1.0000   1.0000   1.0000   1.0000   1.0000
     1.0000   1.0000   1.0000   1.0000   1.0000   1.0000   0.0000   0.0000
     0.0000   0.0000

          k =-0.3655 0.3807-0.1632 (  1634 PWs)   bands (ev):

   -17.1534 -17.1411 -17.0706 -17.0461 -17.0323 -16.9451 -16.9392 -16.9210
   -16.8562 -16.8453  -2.8502   0.5722   4.6126   6.1943   9.2564  11.3654
    12.1913  14.7846

     occupation numbers 
     1.0000   1.0000   1.0000   1.0000   1.0000   1.0000   1.0000   1.0000
     1.0000   1.0000   1.0000   1.0000   1.0000   1.0000   0.0000   0.0000
     0.0000   0.0000

          k =-0.3090 0.4351-0.2176 (  1645 PWs)   bands (ev):

   -17.1539 -17.1372 -17.0749 -17.0465 -17.0341 -16.9458 -16.9298 -16.9230
   -16.8600 -16.8449  -2.8024   0.4161   4.9811   6.0330   9.1718  11.0701
    12.1596  14.7803

     occupation numbers 
     1.0000   1.0000   1.0000   1.0000   1.0000   1.0000   1.0000   1.0000
     1.0000   1.0000   1.0000   1.0000   1.0000   1.0000   0.0000   0.0000
     0.0000   0.0000

          k =-0.2524 0.4895-0.2720 (  1645 PWs)   bands (ev):

   -17.1570 -17.1353 -17.0750 -17.0388 -17.0324 -16.9500 -16.9338 -16.9253
   -16.8609 -16.8412  -2.6738   0.3227   4.7074   5.9573   9.1191  11.3777
    12.2277  14.6660

     occupation numbers 
     1.0000   1.0000   1.0000   1.0000   1.0000   1.0000   1.0000   1.0000
     1.0000   1.0000   1.0000   1.0000   1.0000   1.0000   0.0000   0.0000
     0.0000   0.0000

          k =-0.1958 0.5439-0.3264 (  1644 PWs)   bands (ev):

   -17.1599 -17.1378 -17.0696 -17.0284 -17.0237 -16.9605 -16.9456 -16.9284
   -16.8574 -16.8373  -2.4732   0.2719   4.1350   5.7029   9.5134  11.2288
    13.1248  14.4547

     occupation numbers 
     1.0000   1.0000   1.0000   1.0000   1.0000   1.0000   1.0000   1.0000
     1.0000   1.0000   1.0000   1.0000   1.0000   1.0000   0.0000   0.0000
     0.0000   0.0000

          k =-0.1392 0.5983-0.3807 (  1638 PWs)   bands (ev):

   -17.1605 -17.1423 -17.0627 -17.0210 -17.0040 -16.9824 -16.9537 -16.9328
   -16.8524 -16.8356  -2.2046   0.1642   3.7523   5.1872  10.2043  11.0985
    13.1114  14.2386

     occupation numbers 
     1.0000   1.0000   1.0000   1.0000   1.0000   1.0000   1.0000   1.0000
     1.0000   1.0000   1.0000   1.0000   1.0000   1.0000   0.0000   0.0000
     0.0000   0.0000

          k =-0.0827 0.6527-0.4351 (  1642 PWs)   bands (ev):

   -17.1580 -17.1467 -17.0577 -17.0134 -17.0045 -16.9826 -16.9618 -16.9368
   -16.8478 -16.8373  -1.8682  -0.1152   3.7475   4.6736  10.1725  11.4065
    12.2063  14.5715

     occupation numbers 
     1.0000   1.0000   1.0000   1.0000   1.0000   1.0000   1.0000   1.0000
     1.0000   1.0000   1.0000   1.0000   1.0000   1.0000   0.0000   0.0000
     0.0000   0.0000

          k =-0.0261 0.7071-0.4895 (  1652 PWs)   bands (ev):

   -17.1524 -17.1501 -17.0547 -17.0333 -16.9953 -16.9740 -16.9598 -16.9403
   -16.8442 -16.8420  -1.4681  -0.5587   4.0715   4.3199   9.9156  10.0853
    13.5854  14.7841

     occupation numbers 
     1.0000   1.0000   1.0000   1.0000   1.0000   1.0000   1.0000   1.0000
     1.0000   1.0000   1.0000   1.0000   1.0000   1.0000   0.0000   0.0000
     0.0000   0.0000

          k =-0.5352 0.2176-0.0000 (  1647 PWs)   bands (ev):

   -17.1576 -17.1445 -17.0661 -17.0237 -17.0067 -16.9881 -16.9455 -16.9254
   -16.8507 -16.8395  -2.4126   0.5081   4.0894   4.7866   9.9904  10.5664
    12.8000  14.9689

     occupation numbers 
     1.0000   1.0000   1.0000   1.0000   1.0000   1.0000   1.0000   1.0000
     1.0000   1.0000   1.0000   1.0000   1.0000   1.0000   0.0000   0.0000
     0.0000   0.0000

          k =-0.4787 0.2720-0.0544 (  1645 PWs)   bands (ev):

   -17.1579 -17.1447 -17.0637 -17.0357 -17.0059 -16.9847 -16.9379 -16.9272
   -16.8515 -16.8398  -2.6616   0.7449   3.9653   5.2832  10.4554  11.1965
    12.1516  14.2692

     occupation numbers 
     1.0000   1.0000   1.0000   1.0000   1.0000   1.0000   1.0000   1.0000
     1.0000   1.0000   1.0000   1.0000   1.0000   1.0000   0.0000   0.0000
     0.0000   0.0000

          k =-0.4221 0.3264-0.1088 (  1638 PWs)   bands (ev):

   -17.1559 -17.1436 -17.0655 -17.0428 -17.0223 -16.9624 -16.9379 -16.9239
   -16.8534 -16.8422  -2.8061   0.7286   4.1658   5.8718   9.8508  11.2621
    12.8663  13.8651

     occupation numbers 
     1.0000   1.0000   1.0000   1.0000   1.0000   1.0000   1.0000   1.0000
     1.0000   1.0000   1.0000   1.0000   1.0000   1.0000   0.0000   0.0000
     0.0000   0.0000

          k =-0.3133 0.3264-0.1088 (  1635 PWs)   bands (ev):

   -17.1528 -17.1390 -17.0704 -17.0543 -17.0354 -16.9395 -16.9378 -16.9170
   -16.8598 -16.8460  -3.2677   1.3179   4.6443   6.4663   9.3788  11.5391
    11.9583  13.8498

     occupation numbers 
     1.0000   1.0000   1.0000   1.0000   1.0000   1.0000   1.0000   1.0000
     1.0000   1.0000   1.0000   1.0000   1.0000   1.0000   0.0000   0.0000
     0.0000   0.0000

          k =-0.2567 0.3807-0.1632 (  1635 PWs)   bands (ev):

   -17.1532 -17.1359 -17.0765 -17.0514 -17.0345 -16.9480 -16.9239 -16.9197
   -16.8626 -16.8458  -3.1595   1.0329   5.0393   6.1571   9.2797  11.0851
    12.1750  13.9399

     occupation numbers 
     1.0000   1.0000   1.0000   1.0000   1.0000   1.0000   1.0000   1.0000
     1.0000   1.0000   1.0000   1.0000   1.0000   1.0000   0.0000   0.0000
     0.0000   0.0000

          k =-0.2002 0.4351-0.2176 (  1636 PWs)   bands (ev):

   -17.1559 -17.1339 -17.0794 -17.0430 -17.0289 -16.9575 -16.9269 -16.9189
   -16.8635 -16.8425  -2.9375   0.7496   4.9030   5.8588   9.1737  11.2997
    12.4255  13.6168

     occupation numbers 
     1.0000   1.0000   1.0000   1.0000   1.0000   1.0000   1.0000   1.0000
     1.0000   1.0000   1.0000   1.0000   1.0000   1.0000   0.0000   0.0000
     0.0000   0.0000

          k =-0.1436 0.4895-0.2720 (  1637 PWs)   bands (ev):

   -17.1589 -17.1369 -17.0735 -17.0322 -17.0191 -16.9682 -16.9384 -16.9246
   -16.8589 -16.8384  -2.6136   0.4788   4.2631   5.6419   9.4651  11.2866
    13.0177  13.6185

     occupation numbers 
     1.0000   1.0000   1.0000   1.0000   1.0000   1.0000   1.0000   1.0000
     1.0000   1.0000   1.0000   1.0000   1.0000   1.0000   0.0000   0.0000
     0.0000   0.0000

          k =-0.0870 0.5439-0.3264 (  1637 PWs)   bands (ev):

   -17.1605 -17.1423 -17.0627 -17.0209 -17.0041 -16.9823 -16.9537 -16.9328
   -16.8524 -16.8356  -2.2040   0.1639   3.7511   5.1880  10.2031  11.0995
    13.1037  14.2429

     occupation numbers 
     1.0000   1.0000   1.0000   1.0000   1.0000   1.0000   1.0000   1.0000
     1.0000   1.0000   1.0000   1.0000   1.0000   1.0000   0.0000   0.0000
     0.0000   0.0000

          k =-0.0305 0.5983-0.3807 (  1643 PWs)   bands (ev):

   -17.1598 -17.1472 -17.0530 -17.0093 -16.9997 -16.9860 -16.9684 -16.9403
   -16.8472 -16.8354  -1.7301  -0.2625   3.5769   4.7122  10.3522  11.8383
    12.8470  13.2551

     occupation numbers 
     1.0000   1.0000   1.0000   1.0000   1.0000   1.0000   1.0000   1.0000
     1.0000   1.0000   1.0000   1.0000   1.0000   1.0000   0.0000   0.0000
     0.0000   0.0000

          k = 0.0261 0.6527-0.4351 (  1645 PWs)   bands (ev):

   -17.1563 -17.1504 -17.0465 -17.0259 -16.9905 -16.9820 -16.9651 -16.9470
   -16.8437 -16.8383  -1.2537  -0.7533   3.7643   4.3565  10.1499  11.3130
    13.2776  13.3523

     occupation numbers 
     1.0000   1.0000   1.0000   1.0000   1.0000   1.0000   1.0000   1.0000
     1.0000   1.0000   1.0000   1.0000   1.0000   1.0000   0.0000   0.0000
     0.0000   0.0000

          k =-0.4264 0.2176-0.0000 (  1640 PWs)   bands (ev):

   -17.1546 -17.1408 -17.0748 -17.0433 -17.0130 -16.9788 -16.9260 -16.9186
   -16.8569 -16.8439  -3.1177   1.4292   4.3149   5.5565  10.2635  10.7407
    12.0719  14.0149

     occupation numbers 
     1.0000   1.0000   1.0000   1.0000   1.0000   1.0000   1.0000   1.0000
     1.0000   1.0000   1.0000   1.0000   1.0000   1.0000   0.0000   0.0000
     0.0000   0.0000

          k =-0.3699 0.2720-0.0544 (  1628 PWs)   bands (ev):

   -17.1541 -17.1404 -17.0697 -17.0515 -17.0272 -16.9585 -16.9286 -16.9190
   -16.8581 -16.8445  -3.2548   1.5024   4.3254   6.1483  10.0085  11.1534
    12.4887  13.1541

     occupation numbers 
     1.0000   1.0000   1.0000   1.0000   1.0000   1.0000   1.0000   1.0000
     1.0000   1.0000   1.0000   1.0000   1.0000   1.0000   0.0000   0.0000
     0.0000   0.0000

          k =-0.2611 0.2720-0.0544 (  1622 PWs)   bands (ev):

   -17.1508 -17.1343 -17.0761 -17.0601 -17.0427 -16.9348 -16.9321 -16.9086
   -16.8665 -16.8486  -3.7152   2.2784   4.8663   6.7911   9.5261  11.5567
    11.6195  12.8523

     occupation numbers 
     1.0000   1.0000   1.0000   1.0000   1.0000   1.0000   1.0000   1.0000
     1.0000   1.0000   1.0000   1.0000   1.0000   1.0026   0.0000   0.0000
     0.0000   0.0000

          k =-0.2045 0.3264-0.1088 (  1630 PWs)   bands (ev):

   -17.1509 -17.1328 -17.0817 -17.0568 -17.0387 -16.9470 -16.9181 -16.9119
   -16.8675 -16.8487  -3.6133   1.9770   5.2074   6.3879   9.4583  10.9398
    12.1442  13.0541

     occupation numbers 
     1.0000   1.0000   1.0000   1.0000   1.0000   1.0000   1.0000   1.0000
     1.0000   1.0000   1.0000   1.0000   1.0000   1.0000   0.0000   0.0000
     0.0000   0.0000

          k =-0.1479 0.3807-0.1632 (  1634 PWs)   bands (ev):

   -17.1526 -17.1314 -17.0866 -17.0491 -17.0291 -16.9599 -16.9196 -16.9099
   -16.8677 -16.8465  -3.3812   1.5874   5.2136   5.8711   9.2871  11.0874
    12.5524  12.7919

     occupation numbers 
     1.0000   1.0000   1.0000   1.0000   1.0000   1.0000   1.0000   1.0000
     1.0000   1.0000   1.0000   1.0000   1.0000   1.0000   0.0000   0.0000
     0.0000   0.0000

          k =-0.0914 0.4351-0.2176 (  1633 PWs)   bands (ev):

   -17.1550 -17.1346 -17.0821 -17.0396 -17.0172 -16.9720 -16.9289 -16.9158
   -16.8622 -16.8430  -3.0278   1.1563   4.5266   5.7047   9.4719  11.1705
    12.3568  13.4202

     occupation numbers 
     1.0000   1.0000   1.0000   1.0000   1.0000   1.0000   1.0000   1.0000
     1.0000   1.0000   1.0000   1.0000   1.0000   1.0000   0.0000   0.0000
     0.0000   0.0000

          k =-0.0348 0.4895-0.2720 (  1641 PWs)   bands (ev):

   -17.1568 -17.1410 -17.0702 -17.0295 -17.0040 -16.9833 -16.9418 -16.9278
   -16.8542 -16.8399  -2.5705   0.6576   3.9363   5.3322  10.1913  11.0559
    12.0599  14.4424

     occupation numbers 
     1.0000   1.0000   1.0000   1.0000   1.0000   1.0000   1.0000   1.0000
     1.0000   1.0000   1.0000   1.0000   1.0000   1.0000   0.0000   0.0000
     0.0000   0.0000

          k = 0.0218 0.5439-0.3264 (  1641 PWs)   bands (ev):

   -17.1574 -17.1465 -17.0583 -17.0188 -16.9943 -16.9900 -16.9581 -16.9372
   -16.8480 -16.8383  -2.0520   0.0900   3.6432   4.9206  10.5488  11.5116
    12.0414  14.3146

     occupation numbers 
     1.0000   1.0000   1.0000   1.0000   1.0000   1.0000   1.0000   1.0000
     1.0000   1.0000   1.0000   1.0000   1.0000   1.0000   0.0000   0.0000
     0.0000   0.0000

          k = 0.0783 0.5983-0.3807 (  1642 PWs)   bands (ev):

   -17.1559 -17.1499 -17.0524 -17.0159 -16.9926 -16.9879 -16.9656 -16.9424
   -16.8445 -16.8390  -1.6369  -0.3657   3.6424   4.6321  10.3800  11.8331
    12.8912  13.0700

     occupation numbers 
     1.0000   1.0000   1.0000   1.0000   1.0000   1.0000   1.0000   1.0000
     1.0000   1.0000   1.0000   1.0000   1.0000   1.0000   0.0000   0.0000
     0.0000   0.0000

          k =-0.6005-0.0544 0.2720 (  1644 PWs)   bands (ev):

   -17.1525 -17.1509 -17.0576 -17.0182 -17.0014 -16.9806 -16.9609 -16.9382
   -16.8437 -16.8424  -1.7921  -0.2021   3.8321   4.5770  10.2446  11.2718
    12.2350  14.4319

     occupation numbers 
     1.0000   1.0000   1.0000   1.0000   1.0000   1.0000   1.0000   1.0000
     1.0000   1.0000   1.0000   1.0000   1.0000   1.0000   0.0000   0.0000
     0.0000   0.0000

          k =-0.3177 0.2176-0.0000 (  1632 PWs)   bands (ev):

   -17.1511 -17.1348 -17.0791 -17.0578 -17.0358 -16.9517 -16.9197 -16.9102
   -16.8658 -16.8483  -3.6833   2.3382   4.7532   6.4551  10.0907  10.6845
    12.3407  12.5877

     occupation numbers 
     1.0000   1.0000   1.0000   1.0000   1.0000   1.0000   1.0000   1.0000
     1.0000   1.0000   1.0000   1.0000   1.0000   1.0000   0.0000   0.0000
     0.0000   0.0000

          k =-0.2089 0.2176-0.0000 (  1625 PWs)   bands (ev):

   -17.1473 -17.1280 -17.0846 -17.0643 -17.0525 -16.9297 -16.9233 -16.8994
   -16.8754 -16.8530  -4.0920   3.2433   5.3674   7.1041   9.5340  11.1405
    11.2094  12.3500

     occupation numbers 
     1.0000   1.0000   1.0000   1.0000   1.0000   1.0000   1.0000   1.0000
     1.0000   1.0000   1.0000   1.0000   1.0000   1.0668   0.0000   0.0000
     0.0000   0.0000

          k =-0.1523 0.2720-0.0544 (  1627 PWs)   bands (ev):

   -17.1471 -17.1279 -17.0886 -17.0628 -17.0459 -16.9424 -16.9119 -16.9024
   -16.8746 -16.8533  -4.0224   3.0560   5.5252   6.6726   9.6690  10.4790
    11.9928  12.4053

     occupation numbers 
     1.0000   1.0000   1.0000   1.0000   1.0000   1.0000   1.0000   1.0000
     1.0000   1.0000   1.0000   1.0000   1.0000   1.0003   0.0000   0.0000
     0.0000   0.0000

          k =-0.0957 0.3264-0.1088 (  1639 PWs)   bands (ev):

   -17.1476 -17.1280 -17.0947 -17.0562 -17.0337 -16.9570 -16.9118 -16.9003
   -16.8733 -16.8527  -3.8158   2.6134   5.6202   5.9961   9.3803  10.6051
    12.4443  12.5509

     occupation numbers 
     1.0000   1.0000   1.0000   1.0000   1.0000   1.0000   1.0000   1.0000
     1.0000   1.0000   1.0000   1.0000   1.0000   1.0000   0.0000   0.0000
     0.0000   0.0000

          k =-0.0392 0.3807-0.1632 (  1639 PWs)   bands (ev):

   -17.1489 -17.1313 -17.0933 -17.0470 -17.0209 -16.9698 -16.9210 -16.9031
   -16.8673 -16.8502  -3.4790   2.0303   4.9271   5.8745   9.4635  10.5896
    12.2718  13.2283

     occupation numbers 
     1.0000   1.0000   1.0000   1.0000   1.0000   1.0000   1.0000   1.0000
     1.0000   1.0000   1.0000   1.0000   1.0000   1.0000   0.0000   0.0000
     0.0000   0.0000

          k = 0.0174 0.4351-0.2176 (  1642 PWs)   bands (ev):

   -17.1502 -17.1383 -17.0835 -17.0376 -17.0096 -16.9792 -16.9312 -16.9153
   -16.8580 -16.8475  -3.0284   1.3330   4.3342   5.5766  10.1135  10.4539
    11.9431  13.9376

     occupation numbers 
     1.0000   1.0000   1.0000   1.0000   1.0000   1.0000   1.0000   1.0000
     1.0000   1.0000   1.0000   1.0000   1.0000   1.0000   0.0000   0.0000
     0.0000   0.0000

          k = 0.0740 0.4895-0.2720 (  1648 PWs)   bands (ev):

   -17.1509 -17.1448 -17.0716 -17.0290 -17.0032 -16.9823 -16.9430 -16.9278
   -16.8503 -16.8455  -2.5072   0.5911   3.9892   5.2403  10.3105  10.8906
    11.9747  14.1815

     occupation numbers 
     1.0000   1.0000   1.0000   1.0000   1.0000   1.0000   1.0000   1.0000
     1.0000   1.0000   1.0000   1.0000   1.0000   1.0000   0.0000   0.0000
     0.0000   0.0000

          k = 0.1305 0.5439-0.3264 (  1649 PWs)   bands (ev):

   -17.1513 -17.1483 -17.0637 -17.0232 -17.0014 -16.9804 -16.9534 -16.9348
   -16.8463 -16.8443  -2.0600   0.0114   3.8457   5.0326  10.2573  11.0396
    12.9084  13.9637

     occupation numbers 
     1.0000   1.0000   1.0000   1.0000   1.0000   1.0000   1.0000   1.0000
     1.0000   1.0000   1.0000   1.0000   1.0000   1.0000   0.0000   0.0000
     0.0000   0.0000

          k =-0.5483-0.1088 0.3264 (  1648 PWs)   bands (ev):

   -17.1513 -17.1483 -17.0638 -17.0232 -17.0014 -16.9804 -16.9534 -16.9348
   -16.8464 -16.8442  -2.0607   0.0117   3.8473   5.0314  10.2584  11.0390
    12.9152  13.9613

     occupation numbers 
     1.0000   1.0000   1.0000   1.0000   1.0000   1.0000   1.0000   1.0000
     1.0000   1.0000   1.0000   1.0000   1.0000   1.0000   0.0000   0.0000
     0.0000   0.0000

          k =-0.4917-0.0544 0.2720 (  1648 PWs)   bands (ev):

   -17.1510 -17.1447 -17.0718 -17.0290 -17.0032 -16.9824 -16.9430 -16.9276
   -16.8503 -16.8453  -2.5086   0.5912   3.9931   5.2377  10.3135  10.8921
    11.9772  14.1825

     occupation numbers 
     1.0000   1.0000   1.0000   1.0000   1.0000   1.0000   1.0000   1.0000
     1.0000   1.0000   1.0000   1.0000   1.0000   1.0000   0.0000   0.0000
     0.0000   0.0000

          k =-0.1001 0.2176 0.0000 (  1650 PWs)   bands (ev):

   -17.1425 -17.1224 -17.0945 -17.0691 -17.0547 -16.9351 -16.9046 -16.8949
   -16.8830 -16.8592  -4.3324   4.0945   6.0659   6.9117   9.7659   9.9409
    11.5890  11.8193

     occupation numbers 
     1.0000   1.0000   1.0000   1.0000   1.0000   1.0000   1.0000   1.0000
     1.0000   1.0000   1.0000   1.0000   1.0000   1.0131   0.0000   0.0000
     0.0000   0.0000

          k =-0.0435 0.2720-0.0544 (  1647 PWs)   bands (ev):

   -17.1416 -17.1239 -17.1017 -17.0634 -17.0415 -16.9499 -16.9041 -16.8923
   -16.8798 -16.8600  -4.1646   3.6735   6.0814   6.2266   9.2923  10.2317
    12.1615  12.2821

     occupation numbers 
     1.0000   1.0000   1.0000   1.0000   1.0000   1.0000   1.0000   1.0000
     1.0000   1.0000   1.0000   1.0000   1.0000   1.0000   0.0000   0.0000
     0.0000   0.0000

          k = 0.0131 0.3264-0.1088 (  1650 PWs)   bands (ev):

   -17.1414 -17.1274 -17.1042 -17.0541 -17.0285 -16.9627 -16.9139 -16.8910
   -16.8735 -16.8590  -3.8617   2.9181   5.4759   6.0857   9.2754  10.1765
    12.3924  12.8040

     occupation numbers 
     1.0000   1.0000   1.0000   1.0000   1.0000   1.0000   1.0000   1.0000
     1.0000   1.0000   1.0000   1.0000   1.0000   1.0000   0.0000   0.0000
     0.0000   0.0000

          k = 0.0696 0.3807-0.1632 (  1650 PWs)   bands (ev):

   -17.1421 -17.1340 -17.0981 -17.0443 -17.0184 -16.9713 -16.9241 -16.9001
   -16.8642 -16.8561  -3.4370   1.9980   4.9620   5.8134   9.5606  10.2587
    12.1954  13.1912

     occupation numbers 
     1.0000   1.0000   1.0000   1.0000   1.0000   1.0000   1.0000   1.0000
     1.0000   1.0000   1.0000   1.0000   1.0000   1.0000   0.0000   0.0000
     0.0000   0.0000

          k = 0.1262 0.4351-0.2176 (  1656 PWs)   bands (ev):

   -17.1433 -17.1405 -17.0881 -17.0356 -17.0138 -16.9732 -16.9341 -16.9122
   -16.8568 -16.8526  -2.9258   1.0679   4.5918   5.5589   9.5143  10.8286
    12.2411  13.2617

     occupation numbers 
     1.0000   1.0000   1.0000   1.0000   1.0000   1.0000   1.0000   1.0000
     1.0000   1.0000   1.0000   1.0000   1.0000   1.0000   0.0000   0.0000
     0.0000   0.0000

          k = 0.1828 0.4895-0.2720 (  1647 PWs)   bands (ev):

   -17.1467 -17.1426 -17.0788 -17.0295 -17.0140 -16.9688 -16.9433 -16.9226
   -16.8533 -16.8487  -2.4367   0.3191   4.3277   5.4540   9.4434  11.0855
    12.7432  13.4569

     occupation numbers 
     1.0000   1.0000   1.0000   1.0000   1.0000   1.0000   1.0000   1.0000
     1.0000   1.0000   1.0000   1.0000   1.0000   1.0000   0.0000   0.0000
     0.0000   0.0000

          k =-0.4961-0.1632 0.3807 (  1645 PWs)   bands (ev):

   -17.1493 -17.1424 -17.0738 -17.0294 -17.0145 -16.9633 -16.9475 -16.9286
   -16.8525 -16.8465  -2.2738   0.0956   4.1708   5.5253   9.4564  11.1247
    12.7649  14.3683

     occupation numbers 
     1.0000   1.0000   1.0000   1.0000   1.0000   1.0000   1.0000   1.0000
     1.0000   1.0000   1.0000   1.0000   1.0000   1.0000   0.0000   0.0000
     0.0000   0.0000

          k =-0.4395-0.1088 0.3264 (  1653 PWs)   bands (ev):

   -17.1500 -17.1407 -17.0751 -17.0358 -17.0150 -16.9634 -16.9387 -16.9294
   -16.8543 -16.8467  -2.6159   0.5799   4.1566   5.7489   9.5540  11.1507
    12.5432  13.7922

     occupation numbers 
     1.0000   1.0000   1.0000   1.0000   1.0000   1.0000   1.0000   1.0000
     1.0000   1.0000   1.0000   1.0000   1.0000   1.0000   0.0000   0.0000
     0.0000   0.0000

          k =-0.3829-0.0544 0.2720 (  1648 PWs)   bands (ev):

   -17.1493 -17.1366 -17.0821 -17.0437 -17.0202 -16.9613 -16.9283 -16.9217
   -16.8593 -16.8485  -3.1350   1.4075   4.3423   6.0784   9.6999  11.0026
    12.2332  13.0888

     occupation numbers 
     1.0000   1.0000   1.0000   1.0000   1.0000   1.0000   1.0000   1.0000
     1.0000   1.0000   1.0000   1.0000   1.0000   1.0000   0.0000   0.0000
     0.0000   0.0000

          k = 0.0131 0.3264-0.0000 (  1649 PWs)   bands (ev):

   -17.1376 -17.1271 -17.1096 -17.0552 -17.0263 -16.9667 -16.9113 -16.8820
   -16.8753 -16.8650  -3.9444   3.2090   5.8541   5.8565   8.7282  10.2245
    12.8759  12.9070

     occupation numbers 
     1.0000   1.0000   1.0000   1.0000   1.0000   1.0000   1.0000   1.0000
     1.0000   1.0000   1.0000   1.0000   1.0000   1.0000   0.0000   0.0000
     0.0000   0.0000

          k = 0.0696 0.3807-0.0544 (  1646 PWs)   bands (ev):

   -17.1352 -17.1315 -17.1113 -17.0449 -17.0130 -16.9799 -16.9217 -16.8825
   -16.8685 -16.8650  -3.5929   2.4017   5.4837   5.5786   8.7450  10.0334
    12.8952  13.3913

     occupation numbers 
     1.0000   1.0000   1.0000   1.0000   1.0000   1.0000   1.0000   1.0000
     1.0000   1.0000   1.0000   1.0000   1.0000   1.0000   0.0000   0.0000
     0.0000   0.0000

          k = 0.1262 0.4351-0.1088 (  1649 PWs)   bands (ev):

   -17.1406 -17.1344 -17.1024 -17.0344 -17.0062 -16.9855 -16.9326 -16.8955
   -16.8630 -16.8562  -3.1286   1.4956   4.9302   5.4166   8.9705  10.2863
    12.6400  13.5401

     occupation numbers 
     1.0000   1.0000   1.0000   1.0000   1.0000   1.0000   1.0000   1.0000
     1.0000   1.0000   1.0000   1.0000   1.0000   1.0000   0.0000   0.0000
     0.0000   0.0000

          k = 0.1828 0.4895-0.1632 (  1652 PWs)   bands (ev):

   -17.1479 -17.1365 -17.0894 -17.0247 -17.0083 -16.9813 -16.9434 -16.9104
   -16.8589 -16.8480  -2.6034   0.6466   4.4069   5.3831   8.9832  11.1282
    12.5423  13.4058

     occupation numbers 
     1.0000   1.0000   1.0000   1.0000   1.0000   1.0000   1.0000   1.0000
     1.0000   1.0000   1.0000   1.0000   1.0000   1.0000   0.0000   0.0000
     0.0000   0.0000

          k =-0.4961-0.1632 0.4895 (  1653 PWs)   bands (ev):

   -17.1534 -17.1380 -17.0780 -17.0178 -17.0125 -16.9734 -16.9533 -16.9227
   -16.8562 -16.8423  -2.1888   0.0741   4.0197   5.4781   8.9986  11.7612
    13.0642  13.1941

     occupation numbers 
     1.0000   1.0000   1.0000   1.0000   1.0000   1.0000   1.0000   1.0000
     1.0000   1.0000   1.0000   1.0000   1.0000   1.0000   0.0000   0.0000
     0.0000   0.0000

          k =-0.4395-0.1088 0.4351 (  1648 PWs)   bands (ev):

   -17.1562 -17.1385 -17.0716 -17.0243 -17.0110 -16.9623 -16.9590 -16.9295
   -16.8554 -16.8399  -2.2461   0.1528   3.8181   5.6938   9.1030  11.9150
    12.8635  14.3195

     occupation numbers 
     1.0000   1.0000   1.0000   1.0000   1.0000   1.0000   1.0000   1.0000
     1.0000   1.0000   1.0000   1.0000   1.0000   1.0000   0.0000   0.0000
     0.0000   0.0000

          k =-0.3829-0.0544 0.3807 (  1650 PWs)   bands (ev):

   -17.1561 -17.1373 -17.0716 -17.0367 -17.0146 -16.9593 -16.9448 -16.9309
   -16.8571 -16.8410  -2.7044   0.7844   3.8544   6.0114   9.2781  12.0370
    12.5089  13.6941

     occupation numbers 
     1.0000   1.0000   1.0000   1.0000   1.0000   1.0000   1.0000   1.0000
     1.0000   1.0000   1.0000   1.0000   1.0000   1.0000   0.0000   0.0000
     0.0000   0.0000

          k =-0.3264 0.0000 0.3264 (  1644 PWs)   bands (ev):

   -17.1535 -17.1339 -17.0784 -17.0471 -17.0251 -16.9510 -16.9329 -16.9231
   -16.8617 -16.8449  -3.2209   1.5446   4.2139   6.3933   9.4251  11.9273
    12.1400  12.6888

     occupation numbers 
     1.0000   1.0000   1.0000   1.0000   1.0000   1.0000   1.0000   1.0000
     1.0000   1.0000   1.0000   1.0000   1.0000   1.0000   0.0000   0.0000
     0.0000   0.0000

          k = 0.1218 0.3264-0.0000 (  1650 PWs)   bands (ev):

   -17.1306 -17.1270 -17.1173 -17.0510 -17.0241 -16.9659 -16.9177 -16.8797
   -16.8712 -16.8708  -3.8277   2.8783   5.5487   6.0825   9.1777   9.9498
    12.4057  12.6406

     occupation numbers 
     1.0000   1.0000   1.0000   1.0000   1.0000   1.0000   1.0000   1.0000
     1.0000   1.0000   1.0000   1.0000   1.0000   1.0000   0.0000   0.0000
     0.0000   0.0000

          k = 0.1784 0.3807-0.0544 (  1656 PWs)   bands (ev):

   -17.1387 -17.1286 -17.1086 -17.0412 -17.0140 -16.9747 -16.9275 -16.8931
   -16.8660 -16.8600  -3.3979   1.9463   4.9971   5.8438   9.3941  10.1797
    12.1720  13.0768

     occupation numbers 
     1.0000   1.0000   1.0000   1.0000   1.0000   1.0000   1.0000   1.0000
     1.0000   1.0000   1.0000   1.0000   1.0000   1.0000   0.0000   0.0000
     0.0000   0.0000

          k = 0.2350 0.4351-0.1088 (  1649 PWs)   bands (ev):

   -17.1468 -17.1313 -17.0954 -17.0316 -17.0114 -16.9751 -16.9374 -16.9081
   -16.8624 -16.8502  -2.8841   1.0213   4.5705   5.6275   9.3483  10.7891
    12.2002  13.2466

     occupation numbers 
     1.0000   1.0000   1.0000   1.0000   1.0000   1.0000   1.0000   1.0000
     1.0000   1.0000   1.0000   1.0000   1.0000   1.0000   0.0000   0.0000
     0.0000   0.0000

          k =-0.4438-0.2176 0.5439 (  1645 PWs)   bands (ev):

   -17.1531 -17.1329 -17.0838 -17.0229 -17.0159 -16.9680 -16.9476 -16.9205
   -16.8604 -16.8431  -2.4005   0.2899   4.2681   5.5347   9.3059  11.0176
    12.7568  13.4914

     occupation numbers 
     1.0000   1.0000   1.0000   1.0000   1.0000   1.0000   1.0000   1.0000
     1.0000   1.0000   1.0000   1.0000   1.0000   1.0000   0.0000   0.0000
     0.0000   0.0000

          k =-0.3873-0.1632 0.4895 (  1640 PWs)   bands (ev):

   -17.1567 -17.1333 -17.0767 -17.0250 -17.0153 -16.9604 -16.9535 -16.9273
   -16.8600 -16.8395  -2.2610   0.1002   4.1007   5.5883   9.3448  11.0319
    12.9025  14.4740

     occupation numbers 
     1.0000   1.0000   1.0000   1.0000   1.0000   1.0000   1.0000   1.0000
     1.0000   1.0000   1.0000   1.0000   1.0000   1.0000   0.0000   0.0000
     0.0000   0.0000

          k =-0.3307-0.1088 0.4351 (  1648 PWs)   bands (ev):

   -17.1573 -17.1325 -17.0762 -17.0350 -17.0142 -16.9635 -16.9402 -16.9289
   -16.8615 -16.8396  -2.6200   0.6061   4.0971   5.7778   9.4598  11.0689
    12.8161  14.0073

     occupation numbers 
     1.0000   1.0000   1.0000   1.0000   1.0000   1.0000   1.0000   1.0000
     1.0000   1.0000   1.0000   1.0000   1.0000   1.0000   0.0000   0.0000
     0.0000   0.0000

          k =-0.2741-0.0544 0.3807 (  1650 PWs)   bands (ev):

   -17.1549 -17.1304 -17.0823 -17.0442 -17.0208 -16.9603 -16.9276 -16.9227
   -16.8649 -16.8432  -3.1405   1.4284   4.3102   6.0738   9.6158  11.0475
    12.5215  13.0401

     occupation numbers 
     1.0000   1.0000   1.0000   1.0000   1.0000   1.0000   1.0000   1.0000
     1.0000   1.0000   1.0000   1.0000   1.0000   1.0000   0.0000   0.0000
     0.0000   0.0000

          k =-0.2176 0.0000 0.3264 (  1642 PWs)   bands (ev):

   -17.1502 -17.1272 -17.0915 -17.0516 -17.0321 -16.9520 -16.9224 -16.9077
   -16.8697 -16.8494  -3.6192   2.2727   4.8203   6.4186   9.7277  10.6037
    12.3255  12.4493

     occupation numbers 
     1.0000   1.0000   1.0000   1.0000   1.0000   1.0000   1.0000   1.0000
     1.0000   1.0000   1.0000   1.0000   1.0000   1.0000   0.0000   0.0000
     0.0000   0.0000

          k = 0.2306 0.3264-0.0000 (  1652 PWs)   bands (ev):

   -17.1384 -17.1267 -17.1080 -17.0459 -17.0220 -16.9617 -16.9267 -16.8976
   -16.8645 -16.8620  -3.5481   2.2069   4.8735   6.4118   9.5174  10.3712
    12.2745  12.2798

     occupation numbers 
     1.0000   1.0000   1.0000   1.0000   1.0000   1.0000   1.0000   1.0000
     1.0000   1.0000   1.0000   1.0000   1.0000   1.0000   0.0000   0.0000
     0.0000   0.0000

          k = 0.2872 0.3807-0.0544 (  1656 PWs)   bands (ev):

   -17.1473 -17.1295 -17.0948 -17.0372 -17.0137 -16.9675 -16.9342 -16.9138
   -16.8619 -16.8509  -3.0576   1.3204   4.3815   6.0741   9.4961  10.8990
    12.2314  12.8794

     occupation numbers 
     1.0000   1.0000   1.0000   1.0000   1.0000   1.0000   1.0000   1.0000
     1.0000   1.0000   1.0000   1.0000   1.0000   1.0000   0.0000   0.0000
     0.0000   0.0000

          k =-0.3916-0.2720 0.5983 (  1646 PWs)   bands (ev):

   -17.1545 -17.1303 -17.0839 -17.0278 -17.0134 -16.9649 -16.9442 -16.9260
   -16.8613 -16.8423  -2.5411   0.5102   4.1447   5.7601   9.3778  11.0843
    12.5674  13.6610

     occupation numbers 
     1.0000   1.0000   1.0000   1.0000   1.0000   1.0000   1.0000   1.0000
     1.0000   1.0000   1.0000   1.0000   1.0000   1.0000   0.0000   0.0000
     0.0000   0.0000

          k =-0.3351-0.2176 0.5439 (  1645 PWs)   bands (ev):

   -17.1588 -17.1295 -17.0788 -17.0217 -17.0158 -16.9615 -16.9530 -16.9287
   -16.8625 -16.8375  -2.2333   0.0804   4.1059   5.5446   9.2877  11.1207
    12.8183  14.6409

     occupation numbers 
     1.0000   1.0000   1.0000   1.0000   1.0000   1.0000   1.0000   1.0000
     1.0000   1.0000   1.0000   1.0000   1.0000   1.0000   0.0000   0.0000
     0.0000   0.0000

          k =-0.2785-0.1632 0.4895 (  1647 PWs)   bands (ev):

   -17.1599 -17.1276 -17.0806 -17.0288 -17.0108 -16.9714 -16.9429 -16.9244
   -16.8652 -16.8367  -2.4437   0.3665   4.2290   5.4661   9.2651  11.1995
    12.9337  13.7616

     occupation numbers 
     1.0000   1.0000   1.0000   1.0000   1.0000   1.0000   1.0000   1.0000
     1.0000   1.0000   1.0000   1.0000   1.0000   1.0000   0.0000   0.0000
     0.0000   0.0000

          k =-0.2219-0.1088 0.4351 (  1648 PWs)   bands (ev):

   -17.1577 -17.1251 -17.0883 -17.0373 -17.0126 -16.9738 -16.9321 -16.9140
   -16.8693 -16.8399  -2.9445   1.1291   4.4988   5.5438   9.3148  11.1963
    12.4591  13.2737

     occupation numbers 
     1.0000   1.0000   1.0000   1.0000   1.0000   1.0000   1.0000   1.0000
     1.0000   1.0000   1.0000   1.0000   1.0000   1.0000   0.0000   0.0000
     0.0000   0.0000

          k =-0.1654-0.0544 0.3807 (  1646 PWs)   bands (ev):

   -17.1528 -17.1222 -17.0984 -17.0456 -17.0210 -16.9686 -16.9227 -16.9009
   -16.8741 -16.8465  -3.4504   2.0347   4.9177   5.7708   9.3766  10.6874
    12.2526  13.1600

     occupation numbers 
     1.0000   1.0000   1.0000   1.0000   1.0000   1.0000   1.0000   1.0000
     1.0000   1.0000   1.0000   1.0000   1.0000   1.0000   0.0000   0.0000
     0.0000   0.0000

          k =-0.1088 0.0000 0.3264 (  1644 PWs)   bands (ev):

   -17.1465 -17.1212 -17.1047 -17.0541 -17.0320 -16.9591 -16.9136 -16.8936
   -16.8753 -16.8555  -3.8649   2.9064   5.4847   6.0821   9.2677  10.2325
    12.4011  12.7915

     occupation numbers 
     1.0000   1.0000   1.0000   1.0000   1.0000   1.0000   1.0000   1.0000
     1.0000   1.0000   1.0000   1.0000   1.0000   1.0000   0.0000   0.0000
     0.0000   0.0000

          k = 0.0000 0.0000 0.3264 (  1648 PWs)   bands (ev):

   -17.1443 -17.1187 -17.1107 -17.0553 -17.0308 -16.9621 -16.9106 -16.8892
   -16.8741 -16.8605  -3.9479   3.1934   5.7131   6.0154   8.7288  10.2567
    12.8110  13.0090

     occupation numbers 
     1.0000   1.0000   1.0000   1.0000   1.0000   1.0000   1.0000   1.0000
     1.0000   1.0000   1.0000   1.0000   1.0000   1.0000   0.0000   0.0000
     0.0000   0.0000

          k = 0.3394 0.3264-0.0000 (  1646 PWs)   bands (ev):

   -17.1479 -17.1290 -17.0936 -17.0393 -17.0144 -16.9635 -16.9339 -16.9171
   -16.8615 -16.8506  -3.1165   1.4435   4.2520   6.3364   9.2439  11.7543
    12.0478  12.4616

     occupation numbers 
     1.0000   1.0000   1.0000   1.0000   1.0000   1.0000   1.0000   1.0000
     1.0000   1.0000   1.0000   1.0000   1.0000   1.0000   0.0000   0.0000
     0.0000   0.0000

          k =-0.3394-0.3264 0.6527 (  1647 PWs)   bands (ev):

   -17.1561 -17.1301 -17.0820 -17.0289 -17.0079 -16.9674 -16.9437 -16.9312
   -16.8605 -16.8409  -2.5950   0.6729   3.8839   5.9480   9.1491  12.1006
    12.3236  13.3529

     occupation numbers 
     1.0000   1.0000   1.0000   1.0000   1.0000   1.0000   1.0000   1.0000
     1.0000   1.0000   1.0000   1.0000   1.0000   1.0000   0.0000   0.0000
     0.0000   0.0000

          k =-0.2828-0.2720 0.5983 (  1642 PWs)   bands (ev):

   -17.1613 -17.1292 -17.0768 -17.0160 -17.0110 -16.9629 -16.9616 -16.9320
   -16.8616 -16.8349  -2.1657   0.0908   3.8120   5.6186   8.9926  12.0238
    12.7478  14.5483

     occupation numbers 
     1.0000   1.0000   1.0000   1.0000   1.0000   1.0000   1.0000   1.0000
     1.0000   1.0000   1.0000   1.0000   1.0000   1.0000   0.0000   0.0000
     0.0000   0.0000

          k =-0.2263-0.2176 0.5439 (  1648 PWs)   bands (ev):

   -17.1629 -17.1269 -17.0791 -17.0191 -17.0050 -16.9794 -16.9511 -16.9259
   -16.8646 -16.8334  -2.1893   0.1159   3.9773   5.3889   8.8913  12.0239
    13.0849  13.5147

     occupation numbers 
     1.0000   1.0000   1.0000   1.0000   1.0000   1.0000   1.0000   1.0000
     1.0000   1.0000   1.0000   1.0000   1.0000   1.0000   0.0000   0.0000
     0.0000   0.0000

          k =-0.1697-0.1632 0.4895 (  1656 PWs)   bands (ev):

   -17.1609 -17.1237 -17.0880 -17.0281 -17.0032 -16.9857 -16.9401 -16.9138
   -16.8692 -16.8363  -2.6407   0.7364   4.3469   5.2793   8.8746  11.6701
    12.6769  13.3659

     occupation numbers 
     1.0000   1.0000   1.0000   1.0000   1.0000   1.0000   1.0000   1.0000
     1.0000   1.0000   1.0000   1.0000   1.0000   1.0000   0.0000   0.0000
     0.0000   0.0000

          k =-0.1131-0.1088 0.4351 (  1644 PWs)   bands (ev):

   -17.1559 -17.1197 -17.1005 -17.0373 -17.0101 -16.9819 -16.9295 -16.8982
   -16.8751 -16.8428  -3.1634   1.5727   4.8924   5.2984   8.8905  10.7403
    12.7975  13.5080

     occupation numbers 
     1.0000   1.0000   1.0000   1.0000   1.0000   1.0000   1.0000   1.0000
     1.0000   1.0000   1.0000   1.0000   1.0000   1.0000   0.0000   0.0000
     0.0000   0.0000

          k =-0.0566-0.0544 0.3807 (  1648 PWs)   bands (ev):

   -17.1493 -17.1153 -17.1124 -17.0466 -17.0196 -16.9739 -16.9195 -16.8833
   -16.8820 -16.8519  -3.6138   2.4322   5.4461   5.5315   8.7702  10.2360
    13.0915  13.3418

     occupation numbers 
     1.0000   1.0000   1.0000   1.0000   1.0000   1.0000   1.0000   1.0000
     1.0000   1.0000   1.0000   1.0000   1.0000   1.0000   0.0000   0.0000
     0.0000   0.0000

          k = 0.0522-0.0544 0.3807 (  1641 PWs)   bands (ev):

   -17.1475 -17.1234 -17.1065 -17.0466 -17.0212 -16.9727 -16.9190 -16.8898
   -16.8717 -16.8553  -3.6216   2.4029   5.3344   5.7613   8.7825  10.1106
    13.0088  13.4919

     occupation numbers 
     1.0000   1.0000   1.0000   1.0000   1.0000   1.0000   1.0000   1.0000
     1.0000   1.0000   1.0000   1.0000   1.0000   1.0000   0.0000   0.0000
     0.0000   0.0000

          k =-0.2872-0.3807 0.7071 (  1652 PWs)   bands (ev):

   -17.1564 -17.1320 -17.0805 -17.0267 -17.0011 -16.9774 -16.9452 -16.9296
   -16.8592 -16.8404  -2.5532   0.6782   3.8208   5.6986   9.5590  11.6172
    12.2542  13.5700

     occupation numbers 
     1.0000   1.0000   1.0000   1.0000   1.0000   1.0000   1.0000   1.0000
     1.0000   1.0000   1.0000   1.0000   1.0000   1.0000   0.0000   0.0000
     0.0000   0.0000

          k =-0.2306-0.3264 0.6527 (  1649 PWs)   bands (ev):

   -17.1627 -17.1325 -17.0714 -17.0130 -16.9987 -16.9778 -16.9638 -16.9353
   -16.8586 -16.8334  -2.0534   0.0648   3.6040   5.3527   9.3723  11.9630
    13.0376  14.1490

     occupation numbers 
     1.0000   1.0000   1.0000   1.0000   1.0000   1.0000   1.0000   1.0000
     1.0000   1.0000   1.0000   1.0000   1.0000   1.0000   0.0000   0.0000
     0.0000   0.0000

          k =-0.1741-0.2720 0.5983 (  1646 PWs)   bands (ev):

   -17.1651 -17.1316 -17.0698 -17.0093 -16.9961 -16.9876 -16.9627 -16.9337
   -16.8599 -16.8309  -1.8757  -0.1504   3.6817   5.1108   9.1918  12.0945
    13.3264  13.9093

     occupation numbers 
     1.0000   1.0000   1.0000   1.0000   1.0000   1.0000   1.0000   1.0000
     1.0000   1.0000   1.0000   1.0000   1.0000   1.0000   0.0000   0.0000
     0.0000   0.0000

          k =-0.1175-0.2176 0.5439 (  1651 PWs)   bands (ev):

   -17.1636 -17.1297 -17.0764 -17.0183 -17.0013 -16.9876 -16.9505 -16.9244
   -16.8627 -16.8330  -2.2449   0.2906   3.9944   5.0139   9.0912  11.7140
    12.5403  14.2992

     occupation numbers 
     1.0000   1.0000   1.0000   1.0000   1.0000   1.0000   1.0000   1.0000
     1.0000   1.0000   1.0000   1.0000   1.0000   1.0000   0.0000   0.0000
     0.0000   0.0000

          k =-0.0609-0.1632 0.4895 (  1649 PWs)   bands (ev):

   -17.1587 -17.1272 -17.0890 -17.0281 -17.0072 -16.9854 -16.9387 -16.9091
   -16.8667 -16.8391  -2.7728   0.9961   4.4676   5.1006   9.0451  10.6142
    12.7920  14.4221

     occupation numbers 
     1.0000   1.0000   1.0000   1.0000   1.0000   1.0000   1.0000   1.0000
     1.0000   1.0000   1.0000   1.0000   1.0000   1.0000   0.0000   0.0000
     0.0000   0.0000

          k =-0.0044-0.1088 0.4351 (  1646 PWs)   bands (ev):

   -17.1523 -17.1247 -17.1013 -17.0376 -17.0125 -16.9818 -16.9282 -16.8946
   -16.8707 -16.8477  -3.2509   1.7322   4.9464   5.4145   8.8773  10.0455
    13.0911  14.1256

     occupation numbers 
     1.0000   1.0000   1.0000   1.0000   1.0000   1.0000   1.0000   1.0000
     1.0000   1.0000   1.0000   1.0000   1.0000   1.0000   0.0000   0.0000
     0.0000   0.0000

          k = 0.1044-0.1088 0.4351 (  1639 PWs)   bands (ev):

   -17.1505 -17.1319 -17.0953 -17.0376 -17.0172 -16.9769 -16.9284 -16.8999
   -16.8633 -16.8502  -3.2004   1.5218   4.8518   5.6101   9.0970  10.2444
    12.8194  13.6560

     occupation numbers 
     1.0000   1.0000   1.0000   1.0000   1.0000   1.0000   1.0000   1.0000
     1.0000   1.0000   1.0000   1.0000   1.0000   1.0000   0.0000   0.0000
     0.0000   0.0000

          k = 0.1610-0.0544 0.3807 (  1638 PWs)   bands (ev):

   -17.1499 -17.1293 -17.0951 -17.0459 -17.0249 -16.9660 -16.9217 -16.9026
   -16.8666 -16.8510  -3.4745   1.9830   4.9937   5.8945   9.6361  10.2549
    12.2393  13.2432

     occupation numbers 
     1.0000   1.0000   1.0000   1.0000   1.0000   1.0000   1.0000   1.0000
     1.0000   1.0000   1.0000   1.0000   1.0000   1.0000   0.0000   0.0000
     0.0000   0.0000

          k =-0.1784-0.3807 0.7071 (  1645 PWs)   bands (ev):

   -17.1621 -17.1370 -17.0656 -17.0082 -16.9973 -16.9841 -16.9659 -16.9376
   -16.8550 -16.8336  -1.8915  -0.0701   3.6420   4.8905  10.2781  11.4844
    11.9190  14.7513

     occupation numbers 
     1.0000   1.0000   1.0000   1.0000   1.0000   1.0000   1.0000   1.0000
     1.0000   1.0000   1.0000   1.0000   1.0000   1.0000   0.0000   0.0000
     0.0000   0.0000

          k =-0.1218-0.3264 0.6527 (  1645 PWs)   bands (ev):

   -17.1656 -17.1379 -17.0572 -17.0053 -16.9958 -16.9835 -16.9731 -16.9433
   -16.8542 -16.8300  -1.5249  -0.4611   3.6000   4.6273  10.0844  11.8294
    13.0271  13.3915

     occupation numbers 
     1.0000   1.0000   1.0000   1.0000   1.0000   1.0000   1.0000   1.0000
     1.0000   1.0000   1.0000   1.0000   1.0000   1.0000   0.0000   0.0000
     0.0000   0.0000

          k =-0.0653-0.2720 0.5983 (  1649 PWs)   bands (ev):

   -17.1650 -17.1376 -17.0595 -17.0108 -17.0083 -16.9776 -16.9631 -16.9385
   -16.8550 -16.8311  -1.7905  -0.1863   3.7841   4.5814   9.9194  11.7150
    12.2436  14.4739

     occupation numbers 
     1.0000   1.0000   1.0000   1.0000   1.0000   1.0000   1.0000   1.0000
     1.0000   1.0000   1.0000   1.0000   1.0000   1.0000   0.0000   0.0000
     0.0000   0.0000

          k =-0.0087-0.2176 0.5439 (  1648 PWs)   bands (ev):

   -17.1608 -17.1364 -17.0723 -17.0194 -17.0121 -16.9800 -16.9491 -16.9241
   -16.8572 -16.8363  -2.3158   0.3914   4.0842   4.8259   9.7951  10.5580
    12.5096  15.1927

     occupation numbers 
     1.0000   1.0000   1.0000   1.0000   1.0000   1.0000   1.0000   1.0000
     1.0000   1.0000   1.0000   1.0000   1.0000   1.0000   0.0000   0.0000
     0.0000   0.0000

          k = 0.0479-0.1632 0.4895 (  1643 PWs)   bands (ev):

   -17.1549 -17.1344 -17.0870 -17.0286 -17.0125 -16.9819 -16.9378 -16.9083
   -16.8603 -16.8438  -2.8067   0.9803   4.4454   5.2753   9.3385  10.1388
    12.8452  14.5054

     occupation numbers 
     1.0000   1.0000   1.0000   1.0000   1.0000   1.0000   1.0000   1.0000
     1.0000   1.0000   1.0000   1.0000   1.0000   1.0000   0.0000   0.0000
     0.0000   0.0000

          k = 0.1567-0.1632 0.4895 (  1650 PWs)   bands (ev):

   -17.1529 -17.1396 -17.0831 -17.0293 -17.0174 -16.9767 -16.9376 -16.9111
   -16.8556 -16.8461  -2.7448   0.7312   4.3917   5.5741   9.1981  10.9836
    12.7068  13.5602

     occupation numbers 
     1.0000   1.0000   1.0000   1.0000   1.0000   1.0000   1.0000   1.0000
     1.0000   1.0000   1.0000   1.0000   1.0000   1.0000   0.0000   0.0000
     0.0000   0.0000

          k = 0.2132-0.1088 0.4351 (  1643 PWs)   bands (ev):

   -17.1527 -17.1364 -17.0839 -17.0383 -17.0225 -16.9677 -16.9301 -16.9132
   -16.8589 -16.8469  -3.0210   1.0970   4.6243   5.7098   9.7114  10.7731
    12.2126  13.3995

     occupation numbers 
     1.0000   1.0000   1.0000   1.0000   1.0000   1.0000   1.0000   1.0000
     1.0000   1.0000   1.0000   1.0000   1.0000   1.0000   0.0000   0.0000
     0.0000   0.0000

          k = 0.2698-0.0544 0.3807 (  1642 PWs)   bands (ev):

   -17.1541 -17.1341 -17.0800 -17.0451 -17.0257 -16.9569 -16.9270 -16.9223
   -16.8614 -16.8450  -3.1821   1.4056   4.4058   6.1240   9.8144  11.0288
    12.2521  13.0375

     occupation numbers 
     1.0000   1.0000   1.0000   1.0000   1.0000   1.0000   1.0000   1.0000
     1.0000   1.0000   1.0000   1.0000   1.0000   1.0000   0.0000   0.0000
     0.0000   0.0000

          k =-0.0696-0.3807 0.7071 (  1645 PWs)   bands (ev):

   -17.1643 -17.1428 -17.0462 -17.0185 -16.9880 -16.9872 -16.9655 -16.9520
   -16.8500 -16.8311  -1.1777  -0.8053   3.7609   4.2132  11.1064  11.5050
    11.8492  13.5324

     occupation numbers 
     1.0000   1.0000   1.0000   1.0000   1.0000   1.0000   1.0000   1.0000
     1.0000   1.0000   1.0000   1.0000   1.0000   1.0000   0.0000   0.0000
     0.0000   0.0000

          k =-0.0131-0.3264 0.6527 (  1641 PWs)   bands (ev):

   -17.1649 -17.1439 -17.0424 -17.0207 -17.0021 -16.9734 -16.9685 -16.9498
   -16.8492 -16.8310  -1.3980  -0.5868   3.7753   4.2074  11.0636  11.7231
    12.0997  13.0882

     occupation numbers 
     1.0000   1.0000   1.0000   1.0000   1.0000   1.0000   1.0000   1.0000
     1.0000   1.0000   1.0000   1.0000   1.0000   1.0000   0.0000   0.0000
     0.0000   0.0000

          k = 0.0435-0.2720 0.5983 (  1646 PWs)   bands (ev):

   -17.1618 -17.1436 -17.0569 -17.0172 -17.0096 -16.9787 -16.9586 -16.9354
   -16.8501 -16.8347  -1.9067  -0.0994   3.7897   4.6617  10.5194  10.9845
    12.2615  14.5806

     occupation numbers 
     1.0000   1.0000   1.0000   1.0000   1.0000   1.0000   1.0000   1.0000
     1.0000   1.0000   1.0000   1.0000   1.0000   1.0000   0.0000   0.0000
     0.0000   0.0000

          k = 0.1001-0.2176 0.5439 (  1650 PWs)   bands (ev):

   -17.1568 -17.1422 -17.0732 -17.0215 -17.0121 -16.9817 -16.9471 -16.9203
   -16.8523 -16.8409  -2.3665   0.3373   4.0128   5.2247   9.5228  10.9648
    12.6322  14.4774

     occupation numbers 
     1.0000   1.0000   1.0000   1.0000   1.0000   1.0000   1.0000   1.0000
     1.0000   1.0000   1.0000   1.0000   1.0000   1.0000   0.0000   0.0000
     0.0000   0.0000

          k =-0.4700 0.4895-0.1632 (  1652 PWs)   bands (ev):

   -17.1548 -17.1449 -17.0727 -17.0230 -17.0198 -16.9747 -16.9453 -16.9196
   -16.8504 -16.8433  -2.4198   0.2461   4.0403   5.6553   9.2437  11.8209
    12.9707  13.3413

     occupation numbers 
     1.0000   1.0000   1.0000   1.0000   1.0000   1.0000   1.0000   1.0000
     1.0000   1.0000   1.0000   1.0000   1.0000   1.0000   0.0000   0.0000
     0.0000   0.0000

          k =-0.4134 0.5439-0.2176 (  1647 PWs)   bands (ev):

   -17.1549 -17.1414 -17.0739 -17.0332 -17.0227 -16.9662 -16.9380 -16.9213
   -16.8540 -16.8436  -2.6200   0.4389   4.3551   5.6310   9.6885  11.1483
    12.6850  13.4972

     occupation numbers 
     1.0000   1.0000   1.0000   1.0000   1.0000   1.0000   1.0000   1.0000
     1.0000   1.0000   1.0000   1.0000   1.0000   1.0000   0.0000   0.0000
     0.0000   0.0000

          k =-0.3568 0.5983-0.2720 (  1646 PWs)   bands (ev):

   -17.1571 -17.1384 -17.0711 -17.0382 -17.0232 -16.9586 -16.9356 -16.9296
   -16.8566 -16.8412  -2.7399   0.6496   4.2213   5.8359   9.7203  11.3052
    12.5654  13.6390

     occupation numbers 
     1.0000   1.0000   1.0000   1.0000   1.0000   1.0000   1.0000   1.0000
     1.0000   1.0000   1.0000   1.0000   1.0000   1.0000   0.0000   0.0000
     0.0000   0.0000

          k =-0.3002 0.6527-0.3264 (  1643 PWs)   bands (ev):

   -17.1581 -17.1377 -17.0695 -17.0374 -17.0195 -16.9544 -16.9464 -16.9301
   -16.8569 -16.8396  -2.7656   0.8150   3.8959   6.0513   9.3501  12.2722
    12.5900  13.3679

     occupation numbers 
     1.0000   1.0000   1.0000   1.0000   1.0000   1.0000   1.0000   1.0000
     1.0000   1.0000   1.0000   1.0000   1.0000   1.0000   0.0000   0.0000
     0.0000   0.0000

          k =-0.2437 0.7071-0.3807 (  1645 PWs)   bands (ev):

   -17.1561 -17.1402 -17.0693 -17.0350 -17.0107 -16.9693 -16.9416 -16.9314
   -16.8546 -16.8409  -2.6889   0.8125   3.8039   5.7571   9.7545  11.7185
    12.4090  13.6980

     occupation numbers 
     1.0000   1.0000   1.0000   1.0000   1.0000   1.0000   1.0000   1.0000
     1.0000   1.0000   1.0000   1.0000   1.0000   1.0000   0.0000   0.0000
     0.0000   0.0000

          k =-0.6397 0.3264-0.0000 (  1646 PWs)   bands (ev):

   -17.1633 -17.1470 -17.0380 -17.0228 -17.0070 -16.9719 -16.9688 -16.9478
   -16.8466 -16.8328  -1.5253  -0.4599   3.7890   4.2029  11.4068  11.6080
    12.2753  12.6647

     occupation numbers 
     1.0000   1.0000   1.0000   1.0000   1.0000   1.0000   1.0000   1.0000
     1.0000   1.0000   1.0000   1.0000   1.0000   1.0000   0.0000   0.0000
     0.0000   0.0000

          k =-0.5831 0.3807-0.0544 (  1643 PWs)   bands (ev):

   -17.1616 -17.1478 -17.0499 -17.0160 -17.0056 -16.9857 -16.9610 -16.9377
   -16.8464 -16.8350  -1.8501  -0.1638   3.6170   4.7074  10.6896  11.8287
    12.5193  13.2444

     occupation numbers 
     1.0000   1.0000   1.0000   1.0000   1.0000   1.0000   1.0000   1.0000
     1.0000   1.0000   1.0000   1.0000   1.0000   1.0000   0.0000   0.0000
     0.0000   0.0000

          k =-0.5265 0.4351-0.1088 (  1650 PWs)   bands (ev):

   -17.1579 -17.1471 -17.0638 -17.0194 -17.0074 -16.9849 -16.9533 -16.9266
   -16.8478 -16.8393  -2.1569   0.0621   3.7132   5.3076   9.6358  11.9703
    12.7011  14.1711

     occupation numbers 
     1.0000   1.0000   1.0000   1.0000   1.0000   1.0000   1.0000   1.0000
     1.0000   1.0000   1.0000   1.0000   1.0000   1.0000   0.0000   0.0000
     0.0000   0.0000

          k =-0.4177 0.4351-0.1088 (  1645 PWs)   bands (ev):

   -17.1557 -17.1471 -17.0662 -17.0271 -17.0205 -16.9686 -16.9495 -16.9232
   -16.8488 -16.8421  -2.4803   0.3337   3.8466   5.8466   9.3562  12.1507
    13.0608  13.9356

     occupation numbers 
     1.0000   1.0000   1.0000   1.0000   1.0000   1.0000   1.0000   1.0000
     1.0000   1.0000   1.0000   1.0000   1.0000   1.0000   0.0000   0.0000
     0.0000   0.0000

          k =-0.3612 0.4895-0.1632 (  1646 PWs)   bands (ev):

   -17.1561 -17.1438 -17.0672 -17.0350 -17.0219 -16.9640 -16.9420 -16.9248
   -16.8522 -16.8419  -2.5154   0.2835   4.1927   5.6886   9.7308  11.2274
    13.0009  14.1209

     occupation numbers 
     1.0000   1.0000   1.0000   1.0000   1.0000   1.0000   1.0000   1.0000
     1.0000   1.0000   1.0000   1.0000   1.0000   1.0000   0.0000   0.0000
     0.0000   0.0000

          k =-0.3046 0.5439-0.2176 (  1650 PWs)   bands (ev):

   -17.1586 -17.1402 -17.0675 -17.0345 -17.0215 -16.9629 -16.9400 -16.9293
   -16.8553 -16.8392  -2.4903   0.2695   4.2059   5.6330   9.6366  11.3639
    12.8975  14.2999

     occupation numbers 
     1.0000   1.0000   1.0000   1.0000   1.0000   1.0000   1.0000   1.0000
     1.0000   1.0000   1.0000   1.0000   1.0000   1.0000   0.0000   0.0000
     0.0000   0.0000

          k =-0.2480 0.5983-0.2720 (  1650 PWs)   bands (ev):

   -17.1606 -17.1391 -17.0674 -17.0247 -17.0195 -16.9638 -16.9516 -16.9298
   -16.8555 -16.8365  -2.4067   0.2873   3.8477   5.7580   9.2046  12.2613
    12.9661  14.2426

     occupation numbers 
     1.0000   1.0000   1.0000   1.0000   1.0000   1.0000   1.0000   1.0000
     1.0000   1.0000   1.0000   1.0000   1.0000   1.0000   0.0000   0.0000
     0.0000   0.0000

          k =-0.1915 0.6527-0.3264 (  1633 PWs)   bands (ev):

   -17.1604 -17.1417 -17.0634 -17.0214 -17.0061 -16.9757 -16.9575 -16.9328
   -16.8526 -16.8358  -2.2615   0.2575   3.5975   5.4657   9.5739  12.0247
    13.3315  14.0240

     occupation numbers 
     1.0000   1.0000   1.0000   1.0000   1.0000   1.0000   1.0000   1.0000
     1.0000   1.0000   1.0000   1.0000   1.0000   1.0000   0.0000   0.0000
     0.0000   0.0000

          k =-0.1349 0.7071-0.3807 (  1641 PWs)   bands (ev):

   -17.1574 -17.1465 -17.0584 -17.0189 -16.9944 -16.9900 -16.9580 -16.9372
   -16.8480 -16.8382  -2.0531   0.0908   3.6465   4.9173  10.5444  11.5194
    12.0462  14.3071

     occupation numbers 
     1.0000   1.0000   1.0000   1.0000   1.0000   1.0000   1.0000   1.0000
     1.0000   1.0000   1.0000   1.0000   1.0000   1.0000   0.0000   0.0000
     0.0000   0.0000

          k =-0.5309 0.3264 0.0000 (  1637 PWs)   bands (ev):

   -17.1600 -17.1483 -17.0532 -17.0246 -16.9968 -16.9945 -16.9526 -16.9338
   -16.8466 -16.8369  -2.2077   0.2382   3.6511   4.9369  10.8797  11.5644
    12.1943  13.8469

     occupation numbers 
     1.0000   1.0000   1.0000   1.0000   1.0000   1.0000   1.0000   1.0000
     1.0000   1.0000   1.0000   1.0000   1.0000   1.0000   0.0000   0.0000
     0.0000   0.0000

          k =-0.4743 0.3807-0.0544 (  1640 PWs)   bands (ev):

   -17.1578 -17.1485 -17.0604 -17.0258 -17.0085 -16.9809 -16.9525 -16.9272
   -16.8470 -16.8395  -2.3792   0.3493   3.6119   5.5153   9.8143  12.1416
    13.3750  13.6549

     occupation numbers 
     1.0000   1.0000   1.0000   1.0000   1.0000   1.0000   1.0000   1.0000
     1.0000   1.0000   1.0000   1.0000   1.0000   1.0000   0.0000   0.0000
     0.0000   0.0000

          k =-0.3655 0.3807-0.0544 (  1640 PWs)   bands (ev):

   -17.1555 -17.1459 -17.0637 -17.0401 -17.0237 -16.9572 -16.9482 -16.9220
   -16.8512 -16.8425  -2.8643   0.9066   3.8623   6.1297   9.5299  12.3087
    12.6853  13.6427

     occupation numbers 
     1.0000   1.0000   1.0000   1.0000   1.0000   1.0000   1.0000   1.0000
     1.0000   1.0000   1.0000   1.0000   1.0000   1.0000   0.0000   0.0000
     0.0000   0.0000

          k =-0.3090 0.4351-0.1088 (  1638 PWs)   bands (ev):

   -17.1559 -17.1435 -17.0654 -17.0427 -17.0225 -16.9620 -16.9382 -16.9239
   -16.8535 -16.8422  -2.8056   0.7289   4.1659   5.8724   9.8460  11.2558
    12.8686  13.8609

     occupation numbers 
     1.0000   1.0000   1.0000   1.0000   1.0000   1.0000   1.0000   1.0000
     1.0000   1.0000   1.0000   1.0000   1.0000   1.0000   0.0000   0.0000
     0.0000   0.0000

          k =-0.2524 0.4895-0.1632 (  1637 PWs)   bands (ev):

   -17.1580 -17.1399 -17.0697 -17.0374 -17.0181 -16.9697 -16.9347 -16.9253
   -16.8565 -16.8397  -2.6481   0.5037   4.3228   5.5582   9.6123  11.4035
    12.9533  13.5610

     occupation numbers 
     1.0000   1.0000   1.0000   1.0000   1.0000   1.0000   1.0000   1.0000
     1.0000   1.0000   1.0000   1.0000   1.0000   1.0000   0.0000   0.0000
     0.0000   0.0000

          k =-0.1958 0.5439-0.2176 (  1641 PWs)   bands (ev):

   -17.1603 -17.1386 -17.0710 -17.0252 -17.0128 -16.9776 -16.9444 -16.9250
   -16.8567 -16.8367  -2.4047   0.2812   4.0082   5.5529   9.1019  12.1902
    13.1780  13.3234

     occupation numbers 
     1.0000   1.0000   1.0000   1.0000   1.0000   1.0000   1.0000   1.0000
     1.0000   1.0000   1.0000   1.0000   1.0000   1.0000   0.0000   0.0000
     0.0000   0.0000

          k =-0.1392 0.5983-0.2720 (  1642 PWs)   bands (ev):

   -17.1611 -17.1417 -17.0645 -17.0145 -17.0023 -16.9873 -16.9571 -16.9310
   -16.8528 -16.8349  -2.0920   0.0422   3.6660   5.2652   9.3902  12.1400
    12.9425  14.2811

     occupation numbers 
     1.0000   1.0000   1.0000   1.0000   1.0000   1.0000   1.0000   1.0000
     1.0000   1.0000   1.0000   1.0000   1.0000   1.0000   0.0000   0.0000
     0.0000   0.0000

          k =-0.0827 0.6527-0.3264 (  1643 PWs)   bands (ev):

   -17.1598 -17.1471 -17.0529 -17.0094 -16.9997 -16.9860 -16.9683 -16.9404
   -16.8472 -16.8354  -1.7301  -0.2616   3.5780   4.7097  10.3468  11.8442
    12.8418  13.2596

     occupation numbers 
     1.0000   1.0000   1.0000   1.0000   1.0000   1.0000   1.0000   1.0000
     1.0000   1.0000   1.0000   1.0000   1.0000   1.0000   0.0000   0.0000
     0.0000   0.0000

          k =-0.0261 0.7071-0.3807 (  1644 PWs)   bands (ev):

   -17.1562 -17.1523 -17.0419 -17.0217 -16.9959 -16.9804 -16.9667 -16.9503
   -16.8421 -16.8384  -1.3532  -0.6305   3.7776   4.2125  11.3504  11.4660
    12.0160  13.0686

     occupation numbers 
     1.0000   1.0000   1.0000   1.0000   1.0000   1.0000   1.0000   1.0000
     1.0000   1.0000   1.0000   1.0000   1.0000   1.0000   0.0000   0.0000
     0.0000   0.0000

          k =-0.4221 0.3264-0.0000 (  1636 PWs)   bands (ev):

   -17.1565 -17.1463 -17.0618 -17.0400 -17.0164 -16.9699 -16.9425 -16.9244
   -16.8505 -16.8413  -2.8168   0.9281   3.7888   5.8165  10.0162  11.8380
    12.6091  13.7400

     occupation numbers 
     1.0000   1.0000   1.0000   1.0000   1.0000   1.0000   1.0000   1.0000
     1.0000   1.0000   1.0000   1.0000   1.0000   1.0000   0.0000   0.0000
     0.0000   0.0000

          k =-0.3133 0.3264 0.0000 (  1634 PWs)   bands (ev):

   -17.1538 -17.1413 -17.0658 -17.0538 -17.0319 -16.9449 -16.9417 -16.9166
   -16.8575 -16.8447  -3.3175   1.6316   4.1716   6.4678   9.6745  12.1682
    12.2425  12.7484

     occupation numbers 
     1.0000   1.0000   1.0000   1.0000   1.0000   1.0000   1.0000   1.0000
     1.0000   1.0000   1.0000   1.0000   1.0000   1.0000   0.0000   0.0000
     0.0000   0.0000

          k =-0.2567 0.3807-0.0544 (  1627 PWs)   bands (ev):

   -17.1541 -17.1404 -17.0695 -17.0515 -17.0274 -16.9582 -16.9290 -16.9190
   -16.8581 -16.8445  -3.2543   1.5030   4.3248   6.1492  10.0039  11.1455
    12.4861  13.1605

     occupation numbers 
     1.0000   1.0000   1.0000   1.0000   1.0000   1.0000   1.0000   1.0000
     1.0000   1.0000   1.0000   1.0000   1.0000   1.0000   0.0000   0.0000
     0.0000   0.0000

          k =-0.2002 0.4351-0.1088 (  1637 PWs)   bands (ev):

   -17.1553 -17.1379 -17.0769 -17.0433 -17.0182 -16.9722 -16.9260 -16.9177
   -16.8600 -16.8431  -3.0674   1.1974   4.5546   5.6293   9.6438  11.2578
    12.4014  13.3761

     occupation numbers 
     1.0000   1.0000   1.0000   1.0000   1.0000   1.0000   1.0000   1.0000
     1.0000   1.0000   1.0000   1.0000   1.0000   1.0000   0.0000   0.0000
     0.0000   0.0000

          k =-0.1436 0.4895-0.1632 (  1645 PWs)   bands (ev):

   -17.1570 -17.1367 -17.0795 -17.0321 -17.0077 -16.9848 -16.9357 -16.9155
   -16.8598 -16.8405  -2.7636   0.8149   4.3421   5.4561   9.0643  11.5146
    12.8019  13.5128

     occupation numbers 
     1.0000   1.0000   1.0000   1.0000   1.0000   1.0000   1.0000   1.0000
     1.0000   1.0000   1.0000   1.0000   1.0000   1.0000   0.0000   0.0000
     0.0000   0.0000

          k =-0.0870 0.5439-0.2176 (  1644 PWs)   bands (ev):

   -17.1581 -17.1403 -17.0722 -17.0209 -16.9973 -16.9948 -16.9477 -16.9236
   -16.8547 -16.8382  -2.3559   0.3795   3.9522   5.1853   9.2687  11.4383
    12.5679  14.6280

     occupation numbers 
     1.0000   1.0000   1.0000   1.0000   1.0000   1.0000   1.0000   1.0000
     1.0000   1.0000   1.0000   1.0000   1.0000   1.0000   0.0000   0.0000
     0.0000   0.0000

          k =-0.0305 0.5983-0.2720 (  1642 PWs)   bands (ev):

   -17.1579 -17.1466 -17.0575 -17.0133 -17.0044 -16.9828 -16.9618 -16.9369
   -16.8478 -16.8374  -1.8668  -0.1144   3.7456   4.6727  10.1665  11.4002
    12.2112  14.5789

     occupation numbers 
     1.0000   1.0000   1.0000   1.0000   1.0000   1.0000   1.0000   1.0000
     1.0000   1.0000   1.0000   1.0000   1.0000   1.0000   0.0000   0.0000
     0.0000   0.0000

          k = 0.0261 0.6527-0.3264 (  1645 PWs)   bands (ev):

   -17.1562 -17.1523 -17.0418 -17.0216 -16.9958 -16.9804 -16.9668 -16.9503
   -16.8421 -16.8385  -1.3525  -0.6305   3.7759   4.2132  11.3480  11.4591
    12.0178  13.0766

     occupation numbers 
     1.0000   1.0000   1.0000   1.0000   1.0000   1.0000   1.0000   1.0000
     1.0000   1.0000   1.0000   1.0000   1.0000   1.0000   0.0000   0.0000
     0.0000   0.0000

          k =-0.2045 0.3264-0.0000 (  1628 PWs)   bands (ev):

   -17.1511 -17.1347 -17.0789 -17.0577 -17.0360 -16.9514 -16.9199 -16.9102
   -16.8659 -16.8484  -3.6828   2.3391   4.7522   6.4555  10.0873  10.6754
    12.3396  12.5964

     occupation numbers 
     1.0000   1.0000   1.0000   1.0000   1.0000   1.0000   1.0000   1.0000
     1.0000   1.0000   1.0000   1.0000   1.0000   1.0000   0.0000   0.0000
     0.0000   0.0000

          k =-0.1479 0.3807-0.0544 (  1632 PWs)   bands (ev):

   -17.1510 -17.1342 -17.0866 -17.0502 -17.0231 -16.9690 -16.9174 -16.9074
   -16.8655 -16.8485  -3.5168   2.0770   4.9101   5.8272   9.6360  10.7060
    12.3259  13.2746

     occupation numbers 
     1.0000   1.0000   1.0000   1.0000   1.0000   1.0000   1.0000   1.0000
     1.0000   1.0000   1.0000   1.0000   1.0000   1.0000   0.0000   0.0000
     0.0000   0.0000

          k =-0.0914 0.4351-0.1088 (  1640 PWs)   bands (ev):

   -17.1514 -17.1340 -17.0909 -17.0399 -17.0094 -16.9846 -16.9267 -16.9029
   -16.8643 -16.8474  -3.2214   1.6058   4.8195   5.4762   9.0225  10.6313
    12.9694  13.5991

     occupation numbers 
     1.0000   1.0000   1.0000   1.0000   1.0000   1.0000   1.0000   1.0000
     1.0000   1.0000   1.0000   1.0000   1.0000   1.0000   0.0000   0.0000
     0.0000   0.0000

          k =-0.0348 0.4895-0.1632 (  1645 PWs)   bands (ev):

   -17.1519 -17.1380 -17.0852 -17.0291 -16.9995 -16.9940 -16.9377 -16.9103
   -16.8582 -16.8453  -2.8077   1.0232   4.4064   5.2366   9.1659  10.4292
    12.8222  14.6072

     occupation numbers 
     1.0000   1.0000   1.0000   1.0000   1.0000   1.0000   1.0000   1.0000
     1.0000   1.0000   1.0000   1.0000   1.0000   1.0000   0.0000   0.0000
     0.0000   0.0000

          k = 0.0218 0.5439-0.2176 (  1646 PWs)   bands (ev):

   -17.1522 -17.1451 -17.0716 -17.0200 -17.0059 -16.9846 -16.9499 -16.9247
   -16.8499 -16.8437  -2.3022   0.3858   4.0793   4.8321   9.9275  10.3854
    12.4868  15.1595

     occupation numbers 
     1.0000   1.0000   1.0000   1.0000   1.0000   1.0000   1.0000   1.0000
     1.0000   1.0000   1.0000   1.0000   1.0000   1.0000   0.0000   0.0000
     0.0000   0.0000

          k = 0.0783 0.5983-0.2720 (  1645 PWs)   bands (ev):

   -17.1524 -17.1509 -17.0575 -17.0182 -17.0013 -16.9808 -16.9609 -16.9383
   -16.8437 -16.8425  -1.7907  -0.2014   3.8299   4.5763  10.2383  11.2659
    12.2398  14.4380

     occupation numbers 
     1.0000   1.0000   1.0000   1.0000   1.0000   1.0000   1.0000   1.0000
     1.0000   1.0000   1.0000   1.0000   1.0000   1.0000   0.0000   0.0000
     0.0000   0.0000

          k =-0.6005-0.0544 0.3807 (  1640 PWs)   bands (ev):

   -17.1559 -17.1498 -17.0523 -17.0160 -16.9926 -16.9879 -16.9655 -16.9425
   -16.8445 -16.8390  -1.6370  -0.3647   3.6438   4.6293  10.3743  11.8391
    12.8842  13.0764

     occupation numbers 
     1.0000   1.0000   1.0000   1.0000   1.0000   1.0000   1.0000   1.0000
     1.0000   1.0000   1.0000   1.0000   1.0000   1.0000   0.0000   0.0000
     0.0000   0.0000

          k =-0.0957 0.3264-0.0000 (  1647 PWs)   bands (ev):

   -17.1461 -17.1291 -17.0959 -17.0574 -17.0316 -16.9611 -16.9096 -16.8977
   -16.8728 -16.8547  -3.8951   2.9549   5.4263   6.0669   9.3957  10.4227
    12.4324  12.8612

     occupation numbers 
     1.0000   1.0000   1.0000   1.0000   1.0000   1.0000   1.0000   1.0000
     1.0000   1.0000   1.0000   1.0000   1.0000   1.0000   0.0000   0.0000
     0.0000   0.0000

          k =-0.0392 0.3807-0.0544 (  1647 PWs)   bands (ev):

   -17.1443 -17.1306 -17.1019 -17.0479 -17.0163 -16.9779 -16.9182 -16.8907
   -16.8697 -16.8563  -3.6326   2.4550   5.3756   5.6130   8.8199  10.2412
    13.1802  13.4083

     occupation numbers 
     1.0000   1.0000   1.0000   1.0000   1.0000   1.0000   1.0000   1.0000
     1.0000   1.0000   1.0000   1.0000   1.0000   1.0000   0.0000   0.0000
     0.0000   0.0000

          k = 0.0174 0.4351-0.1088 (  1650 PWs)   bands (ev):

   -17.1438 -17.1349 -17.0996 -17.0372 -17.0038 -16.9902 -16.9289 -16.8951
   -16.8629 -16.8550  -3.2441   1.7398   4.9577   5.3965   8.8954   9.9949
    13.0470  14.1281

     occupation numbers 
     1.0000   1.0000   1.0000   1.0000   1.0000   1.0000   1.0000   1.0000
     1.0000   1.0000   1.0000   1.0000   1.0000   1.0000   0.0000   0.0000
     0.0000   0.0000

          k = 0.0740 0.4895-0.1632 (  1650 PWs)   bands (ev):

   -17.1444 -17.1422 -17.0886 -17.0270 -17.0038 -16.9885 -16.9403 -16.9084
   -16.8543 -16.8518  -2.7531   0.9554   4.5065   5.1353   9.2393  10.2304
    12.7530  14.3298

     occupation numbers 
     1.0000   1.0000   1.0000   1.0000   1.0000   1.0000   1.0000   1.0000
     1.0000   1.0000   1.0000   1.0000   1.0000   1.0000   0.0000   0.0000
     0.0000   0.0000

          k = 0.1305 0.5439-0.2176 (  1651 PWs)   bands (ev):

   -17.1499 -17.1444 -17.0754 -17.0194 -17.0049 -16.9834 -16.9513 -16.9227
   -16.8509 -16.8453  -2.2302   0.2369   4.0608   5.0486   9.3124  11.2070
    12.5471  14.1765

     occupation numbers 
     1.0000   1.0000   1.0000   1.0000   1.0000   1.0000   1.0000   1.0000
     1.0000   1.0000   1.0000   1.0000   1.0000   1.0000   0.0000   0.0000
     0.0000   0.0000

          k =-0.5483-0.1088 0.4351 (  1650 PWs)   bands (ev):

   -17.1548 -17.1444 -17.0663 -17.0167 -17.0012 -16.9815 -16.9598 -16.9318
   -16.8499 -16.8405  -1.9267  -0.1337   3.7347   5.1496   9.3939  12.0196
    12.9171  13.8104

     occupation numbers 
     1.0000   1.0000   1.0000   1.0000   1.0000   1.0000   1.0000   1.0000
     1.0000   1.0000   1.0000   1.0000   1.0000   1.0000   0.0000   0.0000
     0.0000   0.0000

          k =-0.4917-0.0544 0.3807 (  1648 PWs)   bands (ev):

   -17.1568 -17.1433 -17.0644 -17.0226 -17.0024 -16.9764 -16.9578 -16.9338
   -16.8509 -16.8391  -2.1795   0.1755   3.6205   5.4005   9.5605  12.0665
    13.0197  13.9957

     occupation numbers 
     1.0000   1.0000   1.0000   1.0000   1.0000   1.0000   1.0000   1.0000
     1.0000   1.0000   1.0000   1.0000   1.0000   1.0000   0.0000   0.0000
     0.0000   0.0000

          k = 0.0174 0.4351-0.0000 (  1646 PWs)   bands (ev):

   -17.1394 -17.1340 -17.1069 -17.0372 -16.9995 -16.9960 -16.9281 -16.8854
   -16.8645 -16.8608  -3.3178   1.8989   5.3109   5.3162   8.3488   9.7285
    14.1156  14.1637

     occupation numbers 
     1.0000   1.0000   1.0000   1.0000   1.0000   1.0000   1.0000   1.0000
     1.0000   1.0000   1.0000   1.0000   1.0000   1.0000   0.0000   0.0000
     0.0000   0.0000

          k = 0.0740 0.4895-0.0544 (  1648 PWs)   bands (ev):

   -17.1396 -17.1375 -17.1020 -17.0259 -17.0094 -16.9858 -16.9394 -16.8935
   -16.8594 -16.8569  -2.8837   1.1708   4.9500   5.1292   8.4658   9.5093
    13.9583  14.5925

     occupation numbers 
     1.0000   1.0000   1.0000   1.0000   1.0000   1.0000   1.0000   1.0000
     1.0000   1.0000   1.0000   1.0000   1.0000   1.0000   0.0000   0.0000
     0.0000   0.0000

          k = 0.1305 0.5439-0.1088 (  1653 PWs)   bands (ev):

   -17.1473 -17.1390 -17.0883 -17.0178 -17.0131 -16.9777 -16.9512 -16.9096
   -16.8558 -16.8480  -2.3638   0.4317   4.3607   5.0741   8.6778  10.0119
    13.6701  14.5853

     occupation numbers 
     1.0000   1.0000   1.0000   1.0000   1.0000   1.0000   1.0000   1.0000
     1.0000   1.0000   1.0000   1.0000   1.0000   1.0000   0.0000   0.0000
     0.0000   0.0000

          k =-0.5483-0.1088 0.5439 (  1649 PWs)   bands (ev):

   -17.1547 -17.1404 -17.0743 -17.0153 -17.0037 -16.9777 -16.9625 -16.9244
   -16.8533 -16.8403  -1.8770  -0.1605   3.8267   5.1509   8.7544  11.1665
    13.4465  14.3355

     occupation numbers 
     1.0000   1.0000   1.0000   1.0000   1.0000   1.0000   1.0000   1.0000
     1.0000   1.0000   1.0000   1.0000   1.0000   1.0000   0.0000   0.0000
     0.0000   0.0000

          k =-0.4917-0.0544 0.4895 (  1650 PWs)   bands (ev):

   -17.1595 -17.1410 -17.0666 -17.0090 -16.9988 -16.9822 -16.9699 -16.9314
   -16.8524 -16.8360  -1.8193  -0.2170   3.5013   5.3538   8.9026  12.5177
    13.3643  13.9756

     occupation numbers 
     1.0000   1.0000   1.0000   1.0000   1.0000   1.0000   1.0000   1.0000
     1.0000   1.0000   1.0000   1.0000   1.0000   1.0000   0.0000   0.0000
     0.0000   0.0000

          k =-0.4351 0.0000 0.4351 (  1648 PWs)   bands (ev):

   -17.1605 -17.1404 -17.0652 -17.0201 -17.0061 -16.9684 -16.9655 -16.9322
   -16.8535 -16.8358  -2.2538   0.2739   3.4914   5.6658   9.1370  12.9797
    13.3939  13.6703

     occupation numbers 
     1.0000   1.0000   1.0000   1.0000   1.0000   1.0000   1.0000   1.0000
     1.0000   1.0000   1.0000   1.0000   1.0000   1.0000   0.0000   0.0000
     0.0000   0.0000

          k = 0.1262 0.4351-0.0000 (  1649 PWs)   bands (ev):

   -17.1384 -17.1321 -17.1086 -17.0344 -16.9993 -16.9936 -16.9320 -16.8887
   -16.8641 -16.8599  -3.1987   1.6755   5.0041   5.4187   8.8314   9.8428
    12.8704  14.0343

     occupation numbers 
     1.0000   1.0000   1.0000   1.0000   1.0000   1.0000   1.0000   1.0000
     1.0000   1.0000   1.0000   1.0000   1.0000   1.0000   0.0000   0.0000
     0.0000   0.0000

          k = 0.1828 0.4895-0.0544 (  1655 PWs)   bands (ev):

   -17.1465 -17.1348 -17.0949 -17.0236 -17.0031 -16.9883 -16.9433 -16.9050
   -16.8594 -16.8500  -2.7035   0.8934   4.4822   5.2119   9.1355  10.1659
    12.5702  14.4134

     occupation numbers 
     1.0000   1.0000   1.0000   1.0000   1.0000   1.0000   1.0000   1.0000
     1.0000   1.0000   1.0000   1.0000   1.0000   1.0000   0.0000   0.0000
     0.0000   0.0000

          k =-0.4961-0.1632 0.5983 (  1647 PWs)   bands (ev):

   -17.1543 -17.1371 -17.0796 -17.0132 -17.0073 -16.9820 -16.9551 -16.9210
   -16.8563 -16.8413  -2.1821   0.1880   4.0089   5.1298   9.2149  11.1670
    12.3377  14.4107

     occupation numbers 
     1.0000   1.0000   1.0000   1.0000   1.0000   1.0000   1.0000   1.0000
     1.0000   1.0000   1.0000   1.0000   1.0000   1.0000   0.0000   0.0000
     0.0000   0.0000

          k =-0.4395-0.1088 0.5439 (  1650 PWs)   bands (ev):

   -17.1595 -17.1384 -17.0690 -17.0109 -17.0034 -16.9788 -16.9651 -16.9308
   -16.8548 -16.8361  -1.9007  -0.1508   3.6853   5.2048   9.3274  11.8091
    12.8408  14.2207

     occupation numbers 
     1.0000   1.0000   1.0000   1.0000   1.0000   1.0000   1.0000   1.0000
     1.0000   1.0000   1.0000   1.0000   1.0000   1.0000   0.0000   0.0000
     0.0000   0.0000

          k =-0.3829-0.0544 0.4895 (  1649 PWs)   bands (ev):

   -17.1611 -17.1385 -17.0656 -17.0208 -17.0028 -16.9751 -16.9603 -16.9332
   -16.8550 -16.8351  -2.1795   0.1857   3.5907   5.4213   9.5264  11.7688
    13.5580  13.9772

     occupation numbers 
     1.0000   1.0000   1.0000   1.0000   1.0000   1.0000   1.0000   1.0000
     1.0000   1.0000   1.0000   1.0000   1.0000   1.0000   0.0000   0.0000
     0.0000   0.0000

          k =-0.3264 0.0000 0.4351 (  1644 PWs)   bands (ev):

   -17.1590 -17.1371 -17.0695 -17.0350 -17.0124 -16.9675 -16.9417 -16.9313
   -16.8572 -16.8384  -2.6922   0.8138   3.8082   5.7480   9.7556  11.6362
    12.5517  13.6845

     occupation numbers 
     1.0000   1.0000   1.0000   1.0000   1.0000   1.0000   1.0000   1.0000
     1.0000   1.0000   1.0000   1.0000   1.0000   1.0000   0.0000   0.0000
     0.0000   0.0000

          k = 0.2350 0.4351-0.0000 (  1664 PWs)   bands (ev):

   -17.1471 -17.1322 -17.0952 -17.0317 -17.0020 -16.9850 -16.9373 -16.9086
   -16.8605 -16.8506  -2.9375   1.2272   4.3721   5.5800  10.0517  10.1459
    11.8401  13.8187

     occupation numbers 
     1.0000   1.0000   1.0000   1.0000   1.0000   1.0000   1.0000   1.0000
     1.0000   1.0000   1.0000   1.0000   1.0000   1.0000   0.0000   0.0000
     0.0000   0.0000

          k =-0.4438-0.2176 0.6527 (  1648 PWs)   bands (ev):

   -17.1552 -17.1346 -17.0802 -17.0213 -16.9995 -16.9847 -16.9490 -16.9245
   -16.8578 -16.8412  -2.4128   0.4937   3.9699   5.2776  10.0534  10.8208
    11.8938  14.2665

     occupation numbers 
     1.0000   1.0000   1.0000   1.0000   1.0000   1.0000   1.0000   1.0000
     1.0000   1.0000   1.0000   1.0000   1.0000   1.0000   0.0000   0.0000
     0.0000   0.0000

          k =-0.3873-0.1632 0.5983 (  1648 PWs)   bands (ev):

   -17.1608 -17.1355 -17.0696 -17.0131 -17.0030 -16.9779 -16.9617 -16.9334
   -16.8569 -16.8351  -1.9869  -0.0451   3.7739   5.0893  10.0175  10.9532
    12.8945  14.3214

     occupation numbers 
     1.0000   1.0000   1.0000   1.0000   1.0000   1.0000   1.0000   1.0000
     1.0000   1.0000   1.0000   1.0000   1.0000   1.0000   0.0000   0.0000
     0.0000   0.0000

          k =-0.3307-0.1088 0.5439 (  1647 PWs)   bands (ev):

   -17.1628 -17.1353 -17.0668 -17.0182 -16.9992 -16.9822 -16.9576 -16.9342
   -16.8576 -16.8333  -2.0468   0.0263   3.7604   5.0777   9.9974  11.0150
    13.4364  14.0079

     occupation numbers 
     1.0000   1.0000   1.0000   1.0000   1.0000   1.0000   1.0000   1.0000
     1.0000   1.0000   1.0000   1.0000   1.0000   1.0000   0.0000   0.0000
     0.0000   0.0000

          k =-0.2741-0.0544 0.4895 (  1652 PWs)   bands (ev):

   -17.1610 -17.1341 -17.0726 -17.0285 -17.0036 -16.9820 -16.9429 -16.9281
   -16.8598 -16.8360  -2.5169   0.6217   3.9392   5.2488   9.9999  11.0998
    12.2551  14.2711

     occupation numbers 
     1.0000   1.0000   1.0000   1.0000   1.0000   1.0000   1.0000   1.0000
     1.0000   1.0000   1.0000   1.0000   1.0000   1.0000   0.0000   0.0000
     0.0000   0.0000

          k =-0.2176 0.0000 0.4351 (  1645 PWs)   bands (ev):

   -17.1561 -17.1319 -17.0842 -17.0378 -17.0136 -16.9754 -16.9308 -16.9151
   -16.8632 -16.8424  -3.0345   1.3310   4.3486   5.5598   9.9964  10.6098
    11.9575  13.9464

     occupation numbers 
     1.0000   1.0000   1.0000   1.0000   1.0000   1.0000   1.0000   1.0000
     1.0000   1.0000   1.0000   1.0000   1.0000   1.0000   0.0000   0.0000
     0.0000   0.0000

          k =-0.3916-0.2720 0.7071 (  1652 PWs)   bands (ev):

   -17.1564 -17.1319 -17.0804 -17.0267 -17.0012 -16.9772 -16.9452 -16.9298
   -16.8592 -16.8405  -2.5525   0.6789   3.8201   5.6999   9.5546  11.6052
    12.2489  13.5822

     occupation numbers 
     1.0000   1.0000   1.0000   1.0000   1.0000   1.0000   1.0000   1.0000
     1.0000   1.0000   1.0000   1.0000   1.0000   1.0000   0.0000   0.0000
     0.0000   0.0000

          k =-0.3351-0.2176 0.6527 (  1650 PWs)   bands (ev):

   -17.1626 -17.1325 -17.0713 -17.0129 -16.9987 -16.9775 -16.9639 -16.9355
   -16.8587 -16.8334  -2.0528   0.0653   3.6038   5.3539   9.3683  11.9523
    13.0308  14.1562

     occupation numbers 
     1.0000   1.0000   1.0000   1.0000   1.0000   1.0000   1.0000   1.0000
     1.0000   1.0000   1.0000   1.0000   1.0000   1.0000   0.0000   0.0000
     0.0000   0.0000

          k =-0.2785-0.1632 0.5983 (  1647 PWs)   bands (ev):

   -17.1651 -17.1316 -17.0698 -17.0093 -16.9962 -16.9875 -16.9627 -16.9338
   -16.8599 -16.8309  -1.8754  -0.1497   3.6820   5.1114   9.1885  12.0838
    13.3250  13.9119

     occupation numbers 
     1.0000   1.0000   1.0000   1.0000   1.0000   1.0000   1.0000   1.0000
     1.0000   1.0000   1.0000   1.0000   1.0000   1.0000   0.0000   0.0000
     0.0000   0.0000

          k =-0.2219-0.1088 0.5439 (  1651 PWs)   bands (ev):

   -17.1635 -17.1297 -17.0764 -17.0183 -17.0013 -16.9877 -16.9505 -16.9244
   -16.8627 -16.8330  -2.2449   0.2913   3.9956   5.0137   9.0887  11.7108
    12.5303  14.3092

     occupation numbers 
     1.0000   1.0000   1.0000   1.0000   1.0000   1.0000   1.0000   1.0000
     1.0000   1.0000   1.0000   1.0000   1.0000   1.0000   0.0000   0.0000
     0.0000   0.0000

          k =-0.1654-0.0544 0.4895 (  1649 PWs)   bands (ev):

   -17.1587 -17.1272 -17.0890 -17.0281 -17.0072 -16.9854 -16.9387 -16.9091
   -16.8667 -16.8391  -2.7729   0.9967   4.4696   5.0993   9.0435  10.6126
    12.7805  14.4341

     occupation numbers 
     1.0000   1.0000   1.0000   1.0000   1.0000   1.0000   1.0000   1.0000
     1.0000   1.0000   1.0000   1.0000   1.0000   1.0000   0.0000   0.0000
     0.0000   0.0000

          k =-0.1088 0.0000 0.4351 (  1647 PWs)   bands (ev):

   -17.1523 -17.1247 -17.1013 -17.0376 -17.0126 -16.9818 -16.9282 -16.8946
   -16.8707 -16.8477  -3.2509   1.7326   4.9482   5.4131   8.8765  10.0446
    13.0799  14.1386

     occupation numbers 
     1.0000   1.0000   1.0000   1.0000   1.0000   1.0000   1.0000   1.0000
     1.0000   1.0000   1.0000   1.0000   1.0000   1.0000   0.0000   0.0000
     0.0000   0.0000

          k = 0.0000 0.0000 0.4351 (  1658 PWs)   bands (ev):

   -17.1501 -17.1188 -17.1114 -17.0377 -17.0127 -16.9833 -16.9272 -16.8828
   -16.8770 -16.8510  -3.3249   1.8895   5.1528   5.4895   8.3412   9.7577
    14.1559  14.2453

     occupation numbers 
     1.0000   1.0000   1.0000   1.0000   1.0000   1.0000   1.0000   1.0000
     1.0000   1.0000   1.0000   1.0000   1.0000   1.0000   0.0000   0.0000
     0.0000   0.0000

          k =-0.2828-0.2720 0.7071 (  1650 PWs)   bands (ev):

   -17.1635 -17.1311 -17.0725 -17.0126 -16.9951 -16.9775 -16.9672 -16.9357
   -16.8594 -16.8326  -2.0775   0.1145   3.4946   5.5553   8.9755  13.0550
    13.1747  13.5183

     occupation numbers 
     1.0000   1.0000   1.0000   1.0000   1.0000   1.0000   1.0000   1.0000
     1.0000   1.0000   1.0000   1.0000   1.0000   1.0000   0.0000   0.0000
     0.0000   0.0000

          k =-0.2263-0.2176 0.6527 (  1648 PWs)   bands (ev):

   -17.1667 -17.1303 -17.0699 -16.9969 -16.9936 -16.9916 -16.9730 -16.9351
   -16.8601 -16.8291  -1.6977  -0.3095   3.4960   5.2331   8.7487  13.0318
    13.4808  13.8492

     occupation numbers 
     1.0000   1.0000   1.0000   1.0000   1.0000   1.0000   1.0000   1.0000
     1.0000   1.0000   1.0000   1.0000   1.0000   1.0000   0.0000   0.0000
     0.0000   0.0000

          k =-0.1697-0.1632 0.5983 (  1657 PWs)   bands (ev):

   -17.1657 -17.1285 -17.0748 -17.0096 -17.0070 -16.9803 -16.9606 -16.9274
   -16.8625 -16.8305  -1.8888  -0.1095   3.8189   5.0192   8.5983  11.6703
    13.5735  14.3126

     occupation numbers 
     1.0000   1.0000   1.0000   1.0000   1.0000   1.0000   1.0000   1.0000
     1.0000   1.0000   1.0000   1.0000   1.0000   1.0000   0.0000   0.0000
     0.0000   0.0000

          k =-0.1131-0.1088 0.5439 (  1656 PWs)   bands (ev):

   -17.1611 -17.1257 -17.0873 -17.0175 -17.0163 -16.9778 -16.9484 -16.9116
   -16.8663 -16.8360  -2.4066   0.5063   4.3786   4.9316   8.5322  10.4229
    13.8618  14.6031

     occupation numbers 
     1.0000   1.0000   1.0000   1.0000   1.0000   1.0000   1.0000   1.0000
     1.0000   1.0000   1.0000   1.0000   1.0000   1.0000   0.0000   0.0000
     0.0000   0.0000

          k =-0.0566-0.0544 0.4895 (  1651 PWs)   bands (ev):

   -17.1548 -17.1224 -17.1019 -17.0277 -17.0145 -16.9815 -16.9372 -16.8943
   -16.8713 -16.8440  -2.9137   1.2085   4.9770   5.0363   8.4252   9.7058
    14.1983  14.6073

     occupation numbers 
     1.0000   1.0000   1.0000   1.0000   1.0000   1.0000   1.0000   1.0000
     1.0000   1.0000   1.0000   1.0000   1.0000   1.0000   0.0000   0.0000
     0.0000   0.0000

          k = 0.0522-0.0544 0.4895 (  1648 PWs)   bands (ev):

   -17.1527 -17.1272 -17.0998 -17.0278 -17.0159 -16.9807 -16.9369 -16.8949
   -16.8671 -16.8467  -2.9246   1.1982   4.7829   5.3189   8.4968   9.5392
    14.2100  14.6682

     occupation numbers 
     1.0000   1.0000   1.0000   1.0000   1.0000   1.0000   1.0000   1.0000
     1.0000   1.0000   1.0000   1.0000   1.0000   1.0000   0.0000   0.0000
     0.0000   0.0000

          k =-0.1741-0.2720 0.7071 (  1650 PWs)   bands (ev):

   -17.1669 -17.1333 -17.0645 -16.9969 -16.9935 -16.9830 -16.9824 -16.9392
   -16.8577 -16.8288  -1.5609  -0.4285   3.4698   4.9932   9.1241  13.0622
    13.2917  13.4300

     occupation numbers 
     1.0000   1.0000   1.0000   1.0000   1.0000   1.0000   1.0000   1.0000
     1.0000   1.0000   1.0000   1.0000   1.0000   1.0000   0.0000   0.0000
     0.0000   0.0000

          k =-0.1175-0.2176 0.6527 (  1654 PWs)   bands (ev):

   -17.1667 -17.1327 -17.0643 -17.0174 -16.9964 -16.9735 -16.9699 -16.9375
   -16.8584 -16.8291  -1.4713  -0.5392   3.7106   4.7473   8.9122  11.6502
    13.5622  14.6154

     occupation numbers 
     1.0000   1.0000   1.0000   1.0000   1.0000   1.0000   1.0000   1.0000
     1.0000   1.0000   1.0000   1.0000   1.0000   1.0000   0.0000   0.0000
     0.0000   0.0000

          k =-0.0609-0.1632 0.5983 (  1650 PWs)   bands (ev):

   -17.1627 -17.1313 -17.0743 -17.0267 -17.0072 -16.9673 -16.9590 -16.9240
   -16.8605 -16.8337  -1.9594  -0.0350   4.2051   4.6608   8.7912  10.3218
    13.8818  15.4377

     occupation numbers 
     1.0000   1.0000   1.0000   1.0000   1.0000   1.0000   1.0000   1.0000
     1.0000   1.0000   1.0000   1.0000   1.0000   1.0000   0.0000   0.0000
     0.0000   0.0000

          k =-0.0044-0.1088 0.5439 (  1649 PWs)   bands (ev):

   -17.1569 -17.1294 -17.0896 -17.0238 -17.0176 -16.9729 -16.9472 -16.9063
   -16.8636 -16.8408  -2.4839   0.5823   4.5825   4.9423   8.6502   9.5130
    14.2113  15.4153

     occupation numbers 
     1.0000   1.0000   1.0000   1.0000   1.0000   1.0000   1.0000   1.0000
     1.0000   1.0000   1.0000   1.0000   1.0000   1.0000   0.0000   0.0000
     0.0000   0.0000

          k = 0.1044-0.1088 0.5439 (  1645 PWs)   bands (ev):

   -17.1548 -17.1367 -17.0846 -17.0199 -17.0184 -16.9771 -16.9468 -16.9093
   -16.8573 -16.8431  -2.4646   0.5091   4.2567   5.2645   8.8440   9.8473
    13.9829  14.6951

     occupation numbers 
     1.0000   1.0000   1.0000   1.0000   1.0000   1.0000   1.0000   1.0000
     1.0000   1.0000   1.0000   1.0000   1.0000   1.0000   0.0000   0.0000
     0.0000   0.0000

          k = 0.1610-0.0544 0.4895 (  1644 PWs)   bands (ev):

   -17.1548 -17.1344 -17.0870 -17.0286 -17.0125 -16.9819 -16.9378 -16.9083
   -16.8603 -16.8439  -2.8068   0.9809   4.4469   5.2746   9.3368  10.1372
    12.8339  14.5167

     occupation numbers 
     1.0000   1.0000   1.0000   1.0000   1.0000   1.0000   1.0000   1.0000
     1.0000   1.0000   1.0000   1.0000   1.0000   1.0000   0.0000   0.0000
     0.0000   0.0000

          k =-0.0653-0.2720 0.7071 (  1642 PWs)   bands (ev):

   -17.1664 -17.1391 -17.0493 -17.0233 -16.9918 -16.9805 -16.9624 -16.9506
   -16.8530 -16.8294  -1.0510  -0.9467   3.7847   4.2911   9.8520  11.7311
    13.2679  13.3270

     occupation numbers 
     1.0000   1.0000   1.0000   1.0000   1.0000   1.0000   1.0000   1.0000
     1.0000   1.0000   1.0000   1.0000   1.0000   1.0000   0.0000   0.0000
     0.0000   0.0000

          k =-0.0087-0.2176 0.6527 (  1649 PWs)   bands (ev):

   -17.1634 -17.1392 -17.0552 -17.0339 -16.9993 -16.9689 -16.9610 -16.9392
   -16.8533 -16.8327  -1.5100  -0.5194   4.0514   4.3333   9.6807  10.3429
    13.6136  14.8201

     occupation numbers 
     1.0000   1.0000   1.0000   1.0000   1.0000   1.0000   1.0000   1.0000
     1.0000   1.0000   1.0000   1.0000   1.0000   1.0000   0.0000   0.0000
     0.0000   0.0000

          k = 0.0479-0.1632 0.5983 (  1646 PWs)   bands (ev):

   -17.1584 -17.1383 -17.0731 -17.0283 -17.0085 -16.9690 -16.9571 -16.9208
   -16.8548 -16.8384  -2.0231  -0.0026   4.0845   4.9018   9.2037   9.7399
    13.9626  15.5408

     occupation numbers 
     1.0000   1.0000   1.0000   1.0000   1.0000   1.0000   1.0000   1.0000
     1.0000   1.0000   1.0000   1.0000   1.0000   1.0000   0.0000   0.0000
     0.0000   0.0000

          k =-0.5222 0.5439-0.1088 (  1651 PWs)   bands (ev):

   -17.1564 -17.1444 -17.0717 -17.0163 -17.0110 -16.9811 -16.9554 -16.9204
   -16.8498 -16.8408  -2.0773   0.0059   3.7826   5.3302   8.9722  10.8600
    13.8033  14.4671

     occupation numbers 
     1.0000   1.0000   1.0000   1.0000   1.0000   1.0000   1.0000   1.0000
     1.0000   1.0000   1.0000   1.0000   1.0000   1.0000   0.0000   0.0000
     0.0000   0.0000

          k =-0.4656 0.5983-0.1632 (  1649 PWs)   bands (ev):

   -17.1568 -17.1421 -17.0732 -17.0215 -17.0121 -16.9817 -16.9471 -16.9203
   -16.8524 -16.8409  -2.3665   0.3379   4.0137   5.2249   9.5202  10.9627
    12.6212  14.4867

     occupation numbers 
     1.0000   1.0000   1.0000   1.0000   1.0000   1.0000   1.0000   1.0000
     1.0000   1.0000   1.0000   1.0000   1.0000   1.0000   0.0000   0.0000
     0.0000   0.0000

          k =-0.4090 0.6527-0.2176 (  1648 PWs)   bands (ev):

   -17.1587 -17.1393 -17.0703 -17.0303 -17.0109 -16.9772 -16.9407 -16.9271
   -16.8552 -16.8391  -2.5773   0.6349   4.0033   5.2987  10.5282  10.8073
    11.8897  14.3598

     occupation numbers 
     1.0000   1.0000   1.0000   1.0000   1.0000   1.0000   1.0000   1.0000
     1.0000   1.0000   1.0000   1.0000   1.0000   1.0000   0.0000   0.0000
     0.0000   0.0000

          k =-0.6353 0.4351-0.0000 (  1647 PWs)   bands (ev):

   -17.1629 -17.1453 -17.0452 -17.0277 -17.0011 -16.9705 -16.9694 -16.9426
   -16.8480 -16.8332  -1.4521  -0.5674   3.7386   4.4123  10.4775  10.9225
    13.2947  13.4686

     occupation numbers 
     1.0000   1.0000   1.0000   1.0000   1.0000   1.0000   1.0000   1.0000
     1.0000   1.0000   1.0000   1.0000   1.0000   1.0000   0.0000   0.0000
     0.0000   0.0000

          k =-0.5787 0.4895-0.0544 (  1648 PWs)   bands (ev):

   -17.1592 -17.1455 -17.0617 -17.0214 -17.0036 -16.9767 -16.9638 -16.9290
   -16.8482 -16.8374  -1.7452  -0.3158   3.6586   4.9890   9.3797  10.8335
    13.7273  14.8057

     occupation numbers 
     1.0000   1.0000   1.0000   1.0000   1.0000   1.0000   1.0000   1.0000
     1.0000   1.0000   1.0000   1.0000   1.0000   1.0000   0.0000   0.0000
     0.0000   0.0000

          k =-0.4700 0.4895-0.0544 (  1646 PWs)   bands (ev):

   -17.1572 -17.1489 -17.0649 -17.0085 -17.0061 -16.9917 -16.9596 -16.9249
   -16.8457 -16.8398  -2.0557  -0.0179   3.4919   5.5106   9.1207  12.1581
    13.7180  14.0684

     occupation numbers 
     1.0000   1.0000   1.0000   1.0000   1.0000   1.0000   1.0000   1.0000
     1.0000   1.0000   1.0000   1.0000   1.0000   1.0000   0.0000   0.0000
     0.0000   0.0000

          k =-0.4134 0.5439-0.1088 (  1651 PWs)   bands (ev):

   -17.1579 -17.1470 -17.0638 -17.0193 -17.0076 -16.9848 -16.9534 -16.9267
   -16.8478 -16.8394  -2.1566   0.0626   3.7134   5.3086   9.6324  11.9641
    12.6945  14.1741

     occupation numbers 
     1.0000   1.0000   1.0000   1.0000   1.0000   1.0000   1.0000   1.0000
     1.0000   1.0000   1.0000   1.0000   1.0000   1.0000   0.0000   0.0000
     0.0000   0.0000

          k =-0.3568 0.5983-0.1632 (  1651 PWs)   bands (ev):

   -17.1601 -17.1439 -17.0606 -17.0261 -17.0084 -16.9795 -16.9488 -16.9326
   -16.8508 -16.8370  -2.2341   0.1622   3.8394   5.1313  10.4766  11.1465
    12.6253  14.1875

     occupation numbers 
     1.0000   1.0000   1.0000   1.0000   1.0000   1.0000   1.0000   1.0000
     1.0000   1.0000   1.0000   1.0000   1.0000   1.0000   0.0000   0.0000
     0.0000   0.0000

          k =-0.3002 0.6527-0.2176 (  1651 PWs)   bands (ev):

   -17.1615 -17.1409 -17.0626 -17.0230 -17.0088 -16.9742 -16.9550 -16.9334
   -16.8532 -16.8352  -2.2710   0.2557   3.6312   5.4325   9.6145  12.3403
    12.8582  14.0205

     occupation numbers 
     1.0000   1.0000   1.0000   1.0000   1.0000   1.0000   1.0000   1.0000
     1.0000   1.0000   1.0000   1.0000   1.0000   1.0000   0.0000   0.0000
     0.0000   0.0000

          k =-0.5265 0.4351-0.0000 (  1643 PWs)   bands (ev):

   -17.1590 -17.1492 -17.0590 -17.0094 -17.0027 -16.9928 -16.9624 -16.9295
   -16.8453 -16.8378  -1.9479  -0.0912   3.4608   5.2024   9.5767  12.1862
    13.4578  13.6536

     occupation numbers 
     1.0000   1.0000   1.0000   1.0000   1.0000   1.0000   1.0000   1.0000
     1.0000   1.0000   1.0000   1.0000   1.0000   1.0000   0.0000   0.0000
     0.0000   0.0000

          k =-0.4177 0.4351-0.0000 (  1646 PWs)   bands (ev):

   -17.1569 -17.1495 -17.0628 -17.0195 -17.0135 -16.9782 -16.9566 -16.9247
   -16.8462 -16.8404  -2.4146   0.4063   3.4852   5.7888   9.3379  13.2233
    13.4613  13.5047

     occupation numbers 
     1.0000   1.0000   1.0000   1.0000   1.0000   1.0000   1.0000   1.0000
     1.0000   1.0000   1.0000   1.0000   1.0000   1.0000   0.0000   0.0000
     0.0000   0.0000

          k =-0.3612 0.4895-0.0544 (  1641 PWs)   bands (ev):

   -17.1578 -17.1485 -17.0603 -17.0257 -17.0087 -16.9806 -16.9527 -16.9272
   -16.8470 -16.8395  -2.3787   0.3498   3.6116   5.5169   9.8102  12.1310
    13.3681  13.6556

     occupation numbers 
     1.0000   1.0000   1.0000   1.0000   1.0000   1.0000   1.0000   1.0000
     1.0000   1.0000   1.0000   1.0000   1.0000   1.0000   0.0000   0.0000
     0.0000   0.0000

          k =-0.3046 0.5439-0.1088 (  1645 PWs)   bands (ev):

   -17.1599 -17.1456 -17.0581 -17.0286 -17.0046 -16.9845 -16.9476 -16.9321
   -16.8496 -16.8372  -2.2766   0.2170   3.8233   5.1248  10.4503  11.2282
    13.1352  13.7367

     occupation numbers 
     1.0000   1.0000   1.0000   1.0000   1.0000   1.0000   1.0000   1.0000
     1.0000   1.0000   1.0000   1.0000   1.0000   1.0000   0.0000   0.0000
     0.0000   0.0000

          k =-0.2480 0.5983-0.1632 (  1643 PWs)   bands (ev):

   -17.1616 -17.1423 -17.0623 -17.0191 -17.0029 -16.9872 -16.9530 -16.9317
   -16.8523 -16.8349  -2.1230   0.0638   3.7159   5.2031   9.4618  12.4012
    13.0227  13.7577

     occupation numbers 
     1.0000   1.0000   1.0000   1.0000   1.0000   1.0000   1.0000   1.0000
     1.0000   1.0000   1.0000   1.0000   1.0000   1.0000   0.0000   0.0000
     0.0000   0.0000

          k =-0.1915 0.6527-0.2176 (  1647 PWs)   bands (ev):

   -17.1618 -17.1413 -17.0646 -17.0057 -17.0028 -16.9888 -16.9641 -16.9313
   -16.8525 -16.8341  -1.9401  -0.0919   3.4903   5.3791   8.9341  12.6803
    13.5528  14.1308

     occupation numbers 
     1.0000   1.0000   1.0000   1.0000   1.0000   1.0000   1.0000   1.0000
     1.0000   1.0000   1.0000   1.0000   1.0000   1.0000   0.0000   0.0000
     0.0000   0.0000

          k =-0.1349 0.7071-0.2720 (  1643 PWs)   bands (ev):

   -17.1598 -17.1444 -17.0600 -17.0088 -16.9941 -16.9882 -16.9705 -16.9357
   -16.8495 -16.8355  -1.7603  -0.2483   3.4667   5.0969   9.3293  12.6316
    13.3197  13.5234

     occupation numbers 
     1.0000   1.0000   1.0000   1.0000   1.0000   1.0000   1.0000   1.0000
     1.0000   1.0000   1.0000   1.0000   1.0000   1.0000   0.0000   0.0000
     0.0000   0.0000

          k =-0.3090 0.4351-0.0000 (  1636 PWs)   bands (ev):

   -17.1565 -17.1462 -17.0616 -17.0400 -17.0166 -16.9696 -16.9428 -16.9244
   -16.8505 -16.8414  -2.8162   0.9287   3.7881   5.8182  10.0117  11.8261
    12.6035  13.7502

     occupation numbers 
     1.0000   1.0000   1.0000   1.0000   1.0000   1.0000   1.0000   1.0000
     1.0000   1.0000   1.0000   1.0000   1.0000   1.0000   0.0000   0.0000
     0.0000   0.0000

          k =-0.2524 0.4895-0.0544 (  1643 PWs)   bands (ev):

   -17.1578 -17.1447 -17.0635 -17.0357 -17.0061 -16.9844 -16.9380 -16.9274
   -16.8516 -16.8399  -2.6604   0.7461   3.9645   5.2837  10.4459  11.1890
    12.1444  14.2757

     occupation numbers 
     1.0000   1.0000   1.0000   1.0000   1.0000   1.0000   1.0000   1.0000
     1.0000   1.0000   1.0000   1.0000   1.0000   1.0000   0.0000   0.0000
     0.0000   0.0000

          k =-0.1958 0.5439-0.1088 (  1641 PWs)   bands (ev):

   -17.1590 -17.1417 -17.0688 -17.0244 -16.9981 -16.9952 -16.9447 -16.9244
   -16.8537 -16.8380  -2.4023   0.4259   4.0038   5.1006   9.3685  11.4826
    12.8353  14.2970

     occupation numbers 
     1.0000   1.0000   1.0000   1.0000   1.0000   1.0000   1.0000   1.0000
     1.0000   1.0000   1.0000   1.0000   1.0000   1.0000   0.0000   0.0000
     0.0000   0.0000

          k =-0.1392 0.5983-0.1632 (  1642 PWs)   bands (ev):

   -17.1594 -17.1407 -17.0697 -17.0126 -17.0067 -16.9865 -16.9560 -16.9253
   -16.8536 -16.8366  -2.0553   0.0383   3.7774   5.1880   8.7894  11.3279
    13.8208  14.5154

     occupation numbers 
     1.0000   1.0000   1.0000   1.0000   1.0000   1.0000   1.0000   1.0000
     1.0000   1.0000   1.0000   1.0000   1.0000   1.0000   0.0000   0.0000
     0.0000   0.0000

          k =-0.0827 0.6527-0.2176 (  1644 PWs)   bands (ev):

   -17.1585 -17.1442 -17.0614 -17.0179 -16.9989 -16.9770 -16.9682 -16.9339
   -16.8497 -16.8366  -1.6456  -0.3777   3.6617   4.8932   9.1200  11.2580
    13.5955  14.8230

     occupation numbers 
     1.0000   1.0000   1.0000   1.0000   1.0000   1.0000   1.0000   1.0000
     1.0000   1.0000   1.0000   1.0000   1.0000   1.0000   0.0000   0.0000
     0.0000   0.0000

          k =-0.0261 0.7071-0.2720 (  1645 PWs)   bands (ev):

   -17.1562 -17.1504 -17.0464 -17.0258 -16.9905 -16.9819 -16.9652 -16.9472
   -16.8438 -16.8384  -1.2528  -0.7516   3.7638   4.3533  10.1435  11.3052
    13.2853  13.3597

     occupation numbers 
     1.0000   1.0000   1.0000   1.0000   1.0000   1.0000   1.0000   1.0000
     1.0000   1.0000   1.0000   1.0000   1.0000   1.0000   0.0000   0.0000
     0.0000   0.0000

          k =-0.2002 0.4351-0.0000 (  1640 PWs)   bands (ev):

   -17.1545 -17.1407 -17.0746 -17.0433 -17.0132 -16.9785 -16.9260 -16.9189
   -16.8570 -16.8441  -3.1165   1.4308   4.3131   5.5567  10.2535  10.7347
    12.0677  14.0236

     occupation numbers 
     1.0000   1.0000   1.0000   1.0000   1.0000   1.0000   1.0000   1.0000
     1.0000   1.0000   1.0000   1.0000   1.0000   1.0000   0.0000   0.0000
     0.0000   0.0000

          k =-0.1436 0.4895-0.0544 (  1650 PWs)   bands (ev):

   -17.1542 -17.1395 -17.0807 -17.0319 -16.9981 -16.9969 -16.9351 -16.9122
   -16.8572 -16.8438  -2.8558   1.0824   4.4395   5.1491   9.2737  10.4981
    13.0742  14.4601

     occupation numbers 
     1.0000   1.0000   1.0000   1.0000   1.0000   1.0000   1.0000   1.0000
     1.0000   1.0000   1.0000   1.0000   1.0000   1.0000   0.0000   0.0000
     0.0000   0.0000

          k =-0.0870 0.5439-0.1088 (  1650 PWs)   bands (ev):

   -17.1539 -17.1390 -17.0814 -17.0200 -17.0120 -16.9837 -16.9462 -16.9128
   -16.8563 -16.8428  -2.4793   0.5765   4.2735   5.1106   8.6950  10.2069
    14.0930  14.7425

     occupation numbers 
     1.0000   1.0000   1.0000   1.0000   1.0000   1.0000   1.0000   1.0000
     1.0000   1.0000   1.0000   1.0000   1.0000   1.0000   0.0000   0.0000
     0.0000   0.0000

          k =-0.0305 0.5983-0.1632 (  1650 PWs)   bands (ev):

   -17.1534 -17.1431 -17.0719 -17.0251 -17.0067 -16.9717 -16.9582 -16.9235
   -16.8512 -16.8419  -2.0029   0.0086   4.1047   4.8166   8.9731  10.0510
    13.8988  15.6583

     occupation numbers 
     1.0000   1.0000   1.0000   1.0000   1.0000   1.0000   1.0000   1.0000
     1.0000   1.0000   1.0000   1.0000   1.0000   1.0000   0.0000   0.0000
     0.0000   0.0000

          k = 0.0261 0.6527-0.2176 (  1652 PWs)   bands (ev):

   -17.1523 -17.1500 -17.0545 -17.0331 -16.9953 -16.9739 -16.9600 -16.9405
   -16.8443 -16.8421  -1.4660  -0.5567   4.0679   4.3179   9.9083  10.0789
    13.5927  14.7913

     occupation numbers 
     1.0000   1.0000   1.0000   1.0000   1.0000   1.0000   1.0000   1.0000
     1.0000   1.0000   1.0000   1.0000   1.0000   1.0000   0.0000   0.0000
     0.0000   0.0000

          k =-0.0914 0.4351-0.0000 (  1654 PWs)   bands (ev):

   -17.1488 -17.1354 -17.0932 -17.0401 -17.0054 -16.9899 -16.9259 -16.8993
   -16.8628 -16.8507  -3.2888   1.8019   4.9394   5.3455   8.9712  10.1418
    13.3178  14.1660

     occupation numbers 
     1.0000   1.0000   1.0000   1.0000   1.0000   1.0000   1.0000   1.0000
     1.0000   1.0000   1.0000   1.0000   1.0000   1.0000   0.0000   0.0000
     0.0000   0.0000

          k =-0.0348 0.4895-0.0544 (  1652 PWs)   bands (ev):

   -17.1465 -17.1366 -17.0957 -17.0285 -17.0076 -16.9889 -16.9367 -16.8977
   -16.8601 -16.8516  -2.9349   1.2440   4.8615   5.1534   8.4965   9.6472
    14.3483  14.6885

     occupation numbers 
     1.0000   1.0000   1.0000   1.0000   1.0000   1.0000   1.0000   1.0000
     1.0000   1.0000   1.0000   1.0000   1.0000   1.0000   0.0000   0.0000
     0.0000   0.0000

          k = 0.0218 0.5439-0.1088 (  1651 PWs)   bands (ev):

   -17.1458 -17.1412 -17.0882 -17.0216 -17.0154 -16.9759 -16.9484 -16.9073
   -16.8541 -16.8502  -2.4699   0.5804   4.6283   4.8901   8.7024   9.4329
    14.1642  15.3745

     occupation numbers 
     1.0000   1.0000   1.0000   1.0000   1.0000   1.0000   1.0000   1.0000
     1.0000   1.0000   1.0000   1.0000   1.0000   1.0000   0.0000   0.0000
     0.0000   0.0000

          k = 0.0783 0.5983-0.1632 (  1652 PWs)   bands (ev):

   -17.1488 -17.1457 -17.0735 -17.0270 -17.0045 -16.9697 -16.9595 -16.9233
   -16.8489 -16.8458  -1.9366  -0.0708   4.1903   4.7356   9.0242   9.9446
    13.8781  15.2728

     occupation numbers 
     1.0000   1.0000   1.0000   1.0000   1.0000   1.0000   1.0000   1.0000
     1.0000   1.0000   1.0000   1.0000   1.0000   1.0000   0.0000   0.0000
     0.0000   0.0000

          k =-0.6005-0.0544 0.4895 (  1644 PWs)   bands (ev):

   -17.1557 -17.1455 -17.0620 -17.0214 -16.9947 -16.9773 -16.9674 -16.9347
   -16.8484 -16.8390  -1.5319  -0.5028   3.7103   4.8399   9.1367  11.1877
    13.6446  14.5334

     occupation numbers 
     1.0000   1.0000   1.0000   1.0000   1.0000   1.0000   1.0000   1.0000
     1.0000   1.0000   1.0000   1.0000   1.0000   1.0000   0.0000   0.0000
     0.0000   0.0000

          k = 0.0218 0.5439-0.0000 (  1653 PWs)   bands (ev):

   -17.1418 -17.1395 -17.0957 -17.0257 -17.0162 -16.9716 -16.9481 -16.8993
   -16.8558 -16.8543  -2.5287   0.6465   4.9379   4.9425   8.1768   9.0546
    15.3438  15.4295

     occupation numbers 
     1.0000   1.0000   1.0000   1.0000   1.0000   1.0000   1.0000   1.0000
     1.0000   1.0000   1.0000   1.0000   1.0000   1.0000   0.0001   0.0000
     0.0000   0.0000

          k = 0.0783 0.5983-0.0544 (  1650 PWs)   bands (ev):

   -17.1446 -17.1410 -17.0856 -17.0370 -17.0040 -16.9612 -16.9587 -16.9117
   -16.8531 -16.8498  -2.0229  -0.0051   4.6099   4.8563   8.3768   8.9875
    15.1613  15.7398

     occupation numbers 
     1.0000   1.0000   1.0000   1.0000   1.0000   1.0000   1.0000   1.0000
     1.0000   1.0000   1.0000   1.0000   1.0000   1.0000   0.0000   0.0000
     0.0000   0.0000

          k =-0.6005-0.0544 0.5983 (  1650 PWs)   bands (ev):

   -17.1522 -17.1417 -17.0707 -17.0380 -16.9925 -16.9731 -16.9566 -16.9274
   -16.8516 -16.8423  -1.4946  -0.5801   4.0497   4.9054   8.5197   9.8250
    14.8417  15.5520

     occupation numbers 
     1.0000   1.0000   1.0000   1.0000   1.0000   1.0000   1.0000   1.0000
     1.0000   1.0000   1.0000   1.0000   1.0000   1.0000   0.0000   0.0000
     0.0000   0.0000

          k =-0.5439 0.0000 0.5439 (  1642 PWs)   bands (ev):

   -17.1587 -17.1420 -17.0645 -17.0215 -16.9913 -16.9767 -16.9714 -16.9323
   -16.8513 -16.8363  -1.4687  -0.5785   3.6026   5.0844   8.6750  11.1674
    14.4208  15.0645

     occupation numbers 
     1.0000   1.0000   1.0000   1.0000   1.0000   1.0000   1.0000   1.0000
     1.0000   1.0000   1.0000   1.0000   1.0000   1.0000   0.0000   0.0000
     0.0000   0.0000

          k = 0.1305 0.5439-0.0000 (  1648 PWs)   bands (ev):

   -17.1449 -17.1376 -17.0932 -17.0213 -17.0141 -16.9734 -16.9512 -16.9048
   -16.8567 -16.8506  -2.4133   0.5066   4.6420   4.9259   8.6802   9.3316
    13.8631  15.4005

     occupation numbers 
     1.0000   1.0000   1.0000   1.0000   1.0000   1.0000   1.0000   1.0000
     1.0000   1.0000   1.0000   1.0000   1.0000   1.0000   0.0000   0.0000
     0.0000   0.0000

          k =-0.5483-0.1088 0.6527 (  1650 PWs)   bands (ev):

   -17.1524 -17.1398 -17.0767 -17.0263 -17.0025 -16.9668 -16.9636 -16.9223
   -16.8535 -16.8426  -1.8782  -0.1365   4.1533   4.8014   8.9687   9.9190
    13.5451  15.6219

     occupation numbers 
     1.0000   1.0000   1.0000   1.0000   1.0000   1.0000   1.0000   1.0000
     1.0000   1.0000   1.0000   1.0000   1.0000   1.0000   0.0000   0.0000
     0.0000   0.0000

          k =-0.4917-0.0544 0.5983 (  1648 PWs)   bands (ev):

   -17.1590 -17.1413 -17.0637 -17.0202 -16.9934 -16.9750 -16.9713 -16.9343
   -16.8517 -16.8361  -1.4967  -0.5369   3.6862   4.8717   9.1051  11.1804
    13.2535  15.0957

     occupation numbers 
     1.0000   1.0000   1.0000   1.0000   1.0000   1.0000   1.0000   1.0000
     1.0000   1.0000   1.0000   1.0000   1.0000   1.0000   0.0000   0.0000
     0.0000   0.0000

          k =-0.4351 0.0000 0.5439 (  1646 PWs)   bands (ev):

   -17.1624 -17.1418 -17.0601 -17.0068 -17.0005 -16.9837 -16.9707 -16.9356
   -16.8516 -16.8334  -1.7686  -0.2393   3.4668   5.0926   9.3322  12.5964
    13.0966  13.8322

     occupation numbers 
     1.0000   1.0000   1.0000   1.0000   1.0000   1.0000   1.0000   1.0000
     1.0000   1.0000   1.0000   1.0000   1.0000   1.0000   0.0000   0.0000
     0.0000   0.0000

          k =-0.4961-0.1632 0.7071 (  1649 PWs)   bands (ev):

   -17.1538 -17.1380 -17.0786 -17.0125 -17.0093 -16.9801 -16.9556 -16.9224
   -16.8550 -16.8419  -2.1905   0.2578   4.0836   4.8610   9.9001  10.1979
    12.2309  15.2732

     occupation numbers 
     1.0000   1.0000   1.0000   1.0000   1.0000   1.0000   1.0000   1.0000
     1.0000   1.0000   1.0000   1.0000   1.0000   1.0000   0.0000   0.0000
     0.0000   0.0000

          k =-0.4395-0.1088 0.6527 (  1648 PWs)   bands (ev):

   -17.1603 -17.1402 -17.0626 -17.0120 -17.0010 -16.9757 -16.9694 -16.9374
   -16.8526 -16.8351  -1.6873  -0.3038   3.7732   4.6393  10.1301  11.2013
    11.9817  14.9796

     occupation numbers 
     1.0000   1.0000   1.0000   1.0000   1.0000   1.0000   1.0000   1.0000
     1.0000   1.0000   1.0000   1.0000   1.0000   1.0000   0.0000   0.0000
     0.0000   0.0000

          k =-0.3829-0.0544 0.5983 (  1649 PWs)   bands (ev):

   -17.1636 -17.1412 -17.0551 -17.0098 -16.9979 -16.9811 -16.9719 -16.9417
   -16.8519 -16.8320  -1.6108  -0.3808   3.5954   4.6655  10.3047  11.5456
    12.8584  13.5814

     occupation numbers 
     1.0000   1.0000   1.0000   1.0000   1.0000   1.0000   1.0000   1.0000
     1.0000   1.0000   1.0000   1.0000   1.0000   1.0000   0.0000   0.0000
     0.0000   0.0000

          k =-0.3264 0.0000 0.5439 (  1652 PWs)   bands (ev):

   -17.1630 -17.1409 -17.0586 -17.0182 -17.0029 -16.9826 -16.9577 -16.9372
   -16.8528 -16.8335  -2.0642   0.1012   3.6497   4.9082  10.5225  11.4075
    12.2191  14.3136

     occupation numbers 
     1.0000   1.0000   1.0000   1.0000   1.0000   1.0000   1.0000   1.0000
     1.0000   1.0000   1.0000   1.0000   1.0000   1.0000   0.0000   0.0000
     0.0000   0.0000

          k =-0.3873-0.1632 0.7071 (  1643 PWs)   bands (ev):

   -17.1621 -17.1369 -17.0654 -17.0082 -16.9970 -16.9843 -16.9660 -16.9379
   -16.8551 -16.8337  -1.8902  -0.0688   3.6410   4.8916  10.2714  11.4717
    11.9103  14.7536

     occupation numbers 
     1.0000   1.0000   1.0000   1.0000   1.0000   1.0000   1.0000   1.0000
     1.0000   1.0000   1.0000   1.0000   1.0000   1.0000   0.0000   0.0000
     0.0000   0.0000

          k =-0.3307-0.1088 0.6527 (  1645 PWs)   bands (ev):

   -17.1655 -17.1378 -17.0571 -17.0051 -16.9957 -16.9837 -16.9732 -16.9435
   -16.8543 -16.8301  -1.5241  -0.4600   3.6000   4.6281  10.0788  11.8173
    13.0152  13.3880

     occupation numbers 
     1.0000   1.0000   1.0000   1.0000   1.0000   1.0000   1.0000   1.0000
     1.0000   1.0000   1.0000   1.0000   1.0000   1.0000   0.0000   0.0000
     0.0000   0.0000

          k =-0.2741-0.0544 0.5983 (  1649 PWs)   bands (ev):

   -17.1650 -17.1376 -17.0594 -17.0106 -17.0083 -16.9777 -16.9631 -16.9387
   -16.8551 -16.8311  -1.7902  -0.1851   3.7856   4.5811   9.9151  11.7090
    12.2336  14.4646

     occupation numbers 
     1.0000   1.0000   1.0000   1.0000   1.0000   1.0000   1.0000   1.0000
     1.0000   1.0000   1.0000   1.0000   1.0000   1.0000   0.0000   0.0000
     0.0000   0.0000

          k =-0.2176-0.0000 0.5439 (  1648 PWs)   bands (ev):

   -17.1608 -17.1364 -17.0723 -17.0194 -17.0120 -16.9800 -16.9491 -16.9242
   -16.8572 -16.8363  -2.3158   0.3924   4.0864   4.8249   9.7923  10.5550
    12.4970  15.2000

     occupation numbers 
     1.0000   1.0000   1.0000   1.0000   1.0000   1.0000   1.0000   1.0000
     1.0000   1.0000   1.0000   1.0000   1.0000   1.0000   0.0000   0.0000
     0.0000   0.0000

          k =-0.2785-0.1632 0.7071 (  1648 PWs)   bands (ev):

   -17.1669 -17.1332 -17.0644 -16.9967 -16.9934 -16.9831 -16.9825 -16.9393
   -16.8578 -16.8288  -1.5604  -0.4280   3.4697   4.9946   9.1206  13.0542
    13.2826  13.4224

     occupation numbers 
     1.0000   1.0000   1.0000   1.0000   1.0000   1.0000   1.0000   1.0000
     1.0000   1.0000   1.0000   1.0000   1.0000   1.0000   0.0000   0.0000
     0.0000   0.0000

          k =-0.2219-0.1088 0.6527 (  1654 PWs)   bands (ev):

   -17.1667 -17.1327 -17.0643 -17.0173 -16.9964 -16.9735 -16.9700 -16.9376
   -16.8584 -16.8292  -1.4711  -0.5387   3.7109   4.7482   8.9095  11.6485
    13.5493  14.6079

     occupation numbers 
     1.0000   1.0000   1.0000   1.0000   1.0000   1.0000   1.0000   1.0000
     1.0000   1.0000   1.0000   1.0000   1.0000   1.0000   0.0000   0.0000
     0.0000   0.0000

          k =-0.1654-0.0544 0.5983 (  1649 PWs)   bands (ev):

   -17.1627 -17.1313 -17.0742 -17.0266 -17.0072 -16.9673 -16.9590 -16.9240
   -16.8605 -16.8337  -1.9594  -0.0346   4.2061   4.6609   8.7894  10.3203
    13.8680  15.4440

     occupation numbers 
     1.0000   1.0000   1.0000   1.0000   1.0000   1.0000   1.0000   1.0000
     1.0000   1.0000   1.0000   1.0000   1.0000   1.0000   0.0000   0.0000
     0.0000   0.0000

          k =-0.1088 0.0000 0.5439 (  1648 PWs)   bands (ev):

   -17.1569 -17.1294 -17.0895 -17.0238 -17.0176 -16.9729 -16.9473 -16.9063
   -16.8636 -16.8408  -2.4839   0.5825   4.5835   4.9419   8.6493   9.5122
    14.1975  15.4285

     occupation numbers 
     1.0000   1.0000   1.0000   1.0000   1.0000   1.0000   1.0000   1.0000
     1.0000   1.0000   1.0000   1.0000   1.0000   1.0000   0.0000   0.0000
     0.0000   0.0000

          k = 0.0000 0.0000 0.5439 (  1642 PWs)   bands (ev):

   -17.1547 -17.1250 -17.0979 -17.0288 -17.0172 -16.9691 -16.9467 -16.8980
   -16.8673 -16.8433  -2.5428   0.6469   4.7682   5.1243   8.1470   9.1057
    15.4636  15.4794

     occupation numbers 
     1.0000   1.0000   1.0000   1.0000   1.0000   1.0000   1.0000   1.0000
     1.0000   1.0000   1.0000   1.0000   1.0000   1.0000   0.0002   0.0000
     0.0000   0.0000

          k =-0.1697-0.1632 0.7071 (  1652 PWs)   bands (ev):

   -17.1673 -17.1302 -17.0672 -17.0196 -16.9865 -16.9809 -16.9690 -16.9367
   -16.8600 -16.8284  -1.2490  -0.7772   3.6357   4.9308   8.4916  11.5959
    14.4638  14.8606

     occupation numbers 
     1.0000   1.0000   1.0000   1.0000   1.0000   1.0000   1.0000   1.0000
     1.0000   1.0000   1.0000   1.0000   1.0000   1.0000   0.0000   0.0000
     0.0000   0.0000

          k =-0.1131-0.1088 0.6527 (  1656 PWs)   bands (ev):

   -17.1639 -17.1291 -17.0714 -17.0381 -16.9960 -16.9694 -16.9551 -16.9298
   -16.8613 -16.8321  -1.5216  -0.5376   4.1171   4.7445   8.3319  10.1979
    15.0312  15.5346

     occupation numbers 
     1.0000   1.0000   1.0000   1.0000   1.0000   1.0000   1.0000   1.0000
     1.0000   1.0000   1.0000   1.0000   1.0000   1.0000   0.0000   0.0000
     0.0000   0.0000

          k =-0.0566-0.0544 0.5983 (  1648 PWs)   bands (ev):

   -17.1585 -17.1273 -17.0857 -17.0386 -17.0066 -16.9588 -16.9576 -16.9117
   -16.8638 -16.8383  -2.0657   0.0394   4.6890   4.7324   8.2403   9.2315
    15.4118  15.7855

     occupation numbers 
     1.0000   1.0000   1.0000   1.0000   1.0000   1.0000   1.0000   1.0000
     1.0000   1.0000   1.0000   1.0000   1.0000   1.0000   0.0000   0.0000
     0.0000   0.0000

          k = 0.0522-0.0544 0.5983 (  1653 PWs)   bands (ev):

   -17.1563 -17.1311 -17.0848 -17.0389 -17.0071 -16.9597 -16.9570 -16.9106
   -16.8609 -16.8407  -2.0858   0.0465   4.4475   5.0450   8.4221   8.9647
    15.5126  15.7742

     occupation numbers 
     1.0000   1.0000   1.0000   1.0000   1.0000   1.0000   1.0000   1.0000
     1.0000   1.0000   1.0000   1.0000   1.0000   1.0000   0.0000   0.0000
     0.0000   0.0000

          k =-0.0609-0.1632 0.7071 (  1650 PWs)   bands (ev):

   -17.1641 -17.1329 -17.0609 -17.0433 -16.9903 -16.9757 -16.9471 -16.9415
   -16.8581 -16.8318  -1.0957  -0.9722   4.1216   4.5062   8.7012  10.2047
    14.9492  15.1486

     occupation numbers 
     1.0000   1.0000   1.0000   1.0000   1.0000   1.0000   1.0000   1.0000
     1.0000   1.0000   1.0000   1.0000   1.0000   1.0000   0.0000   0.0000
     0.0000   0.0000

          k =-0.0044-0.1088 0.6527 (  1646 PWs)   bands (ev):

   -17.1595 -17.1323 -17.0714 -17.0486 -16.9971 -16.9673 -16.9497 -16.9245
   -16.8590 -16.8367  -1.5987  -0.4987   4.4008   4.6985   8.5846   9.1414
    15.3986  16.1366

     occupation numbers 
     1.0000   1.0000   1.0000   1.0000   1.0000   1.0000   1.0000   1.0000
     1.0000   1.0000   1.0000   1.0000   1.0000   1.0000   0.0000   0.0000
     0.0000   0.0000

          k =-0.5744 0.5983-0.0544 (  1647 PWs)   bands (ev):

   -17.1573 -17.1395 -17.0700 -17.0390 -16.9994 -16.9654 -16.9606 -16.9226
   -16.8532 -16.8391  -1.6681  -0.4286   3.9535   5.0870   8.7322   9.5495
    15.2621  15.5788

     occupation numbers 
     1.0000   1.0000   1.0000   1.0000   1.0000   1.0000   1.0000   1.0000
     1.0000   1.0000   1.0000   1.0000   1.0000   1.0000   0.0000   0.0000
     0.0000   0.0000

          k =-0.5178 0.6527-0.1088 (  1646 PWs)   bands (ev):

   -17.1584 -17.1383 -17.0730 -17.0282 -17.0085 -16.9690 -16.9572 -16.9208
   -16.8548 -16.8385  -2.0231  -0.0022   4.0852   4.9024   9.2019   9.7384
    13.9487  15.5471

     occupation numbers 
     1.0000   1.0000   1.0000   1.0000   1.0000   1.0000   1.0000   1.0000
     1.0000   1.0000   1.0000   1.0000   1.0000   1.0000   0.0000   0.0000
     0.0000   0.0000

          k =-0.6310 0.5439-0.0000 (  1649 PWs)   bands (ev):

   -17.1597 -17.1398 -17.0598 -17.0443 -16.9948 -16.9708 -16.9563 -16.9313
   -16.8526 -16.8365  -1.3872  -0.7056   3.9583   4.7790   9.1924   9.5490
    15.1018  15.1797

     occupation numbers 
     1.0000   1.0000   1.0000   1.0000   1.0000   1.0000   1.0000   1.0000
     1.0000   1.0000   1.0000   1.0000   1.0000   1.0000   0.0000   0.0000
     0.0000   0.0000

          k =-0.5222 0.5439-0.0000 (  1650 PWs)   bands (ev):

   -17.1577 -17.1462 -17.0649 -17.0226 -16.9996 -16.9768 -16.9667 -16.9258
   -16.8475 -16.8388  -1.6686  -0.4152   3.5691   5.2470   8.8871  10.7709
    14.8352  14.9846

     occupation numbers 
     1.0000   1.0000   1.0000   1.0000   1.0000   1.0000   1.0000   1.0000
     1.0000   1.0000   1.0000   1.0000   1.0000   1.0000   0.0000   0.0000
     0.0000   0.0000

          k =-0.4656 0.5983-0.0544 (  1647 PWs)   bands (ev):

   -17.1591 -17.1455 -17.0616 -17.0214 -17.0036 -16.9768 -16.9639 -16.9290
   -16.8482 -16.8374  -1.7449  -0.3154   3.6588   4.9902   9.3770  10.8317
    13.7139  14.7983

     occupation numbers 
     1.0000   1.0000   1.0000   1.0000   1.0000   1.0000   1.0000   1.0000
     1.0000   1.0000   1.0000   1.0000   1.0000   1.0000   0.0000   0.0000
     0.0000   0.0000

          k =-0.4090 0.6527-0.1088 (  1646 PWs)   bands (ev):

   -17.1618 -17.1436 -17.0568 -17.0171 -17.0096 -16.9788 -16.9587 -16.9355
   -16.8501 -16.8348  -1.9064  -0.0983   3.7910   4.6617  10.5153  10.9803
    12.2496  14.5707

     occupation numbers 
     1.0000   1.0000   1.0000   1.0000   1.0000   1.0000   1.0000   1.0000
     1.0000   1.0000   1.0000   1.0000   1.0000   1.0000   0.0000   0.0000
     0.0000   0.0000

          k =-0.4134 0.5439-0.0000 (  1641 PWs)   bands (ev):

   -17.1589 -17.1492 -17.0589 -17.0092 -17.0025 -16.9930 -16.9625 -16.9296
   -16.8453 -16.8378  -1.9474  -0.0909   3.4606   5.2040   9.5732  12.1836
    13.4448  13.6441

     occupation numbers 
     1.0000   1.0000   1.0000   1.0000   1.0000   1.0000   1.0000   1.0000
     1.0000   1.0000   1.0000   1.0000   1.0000   1.0000   0.0000   0.0000
     0.0000   0.0000

          k =-0.3568 0.5983-0.0544 (  1644 PWs)   bands (ev):

   -17.1615 -17.1478 -17.0497 -17.0159 -17.0054 -16.9858 -16.9612 -16.9378
   -16.8464 -16.8350  -1.8492  -0.1629   3.6170   4.7085  10.6840  11.8178
    12.5144  13.2326

     occupation numbers 
     1.0000   1.0000   1.0000   1.0000   1.0000   1.0000   1.0000   1.0000
     1.0000   1.0000   1.0000   1.0000   1.0000   1.0000   0.0000   0.0000
     0.0000   0.0000

          k =-0.3002 0.6527-0.1088 (  1653 PWs)   bands (ev):

   -17.1630 -17.1449 -17.0505 -17.0130 -17.0059 -16.9834 -16.9629 -16.9409
   -16.8490 -16.8332  -1.7824  -0.2176   3.6253   4.6630  10.4119  12.1608
    12.6804  13.0030

     occupation numbers 
     1.0000   1.0000   1.0000   1.0000   1.0000   1.0000   1.0000   1.0000
     1.0000   1.0000   1.0000   1.0000   1.0000   1.0000   0.0000   0.0000
     0.0000   0.0000

          k =-0.3046 0.5439-0.0000 (  1639 PWs)   bands (ev):

   -17.1600 -17.1483 -17.0529 -17.0245 -16.9965 -16.9948 -16.9528 -16.9339
   -16.8467 -16.8371  -2.2065   0.2392   3.6502   4.9383  10.8730  11.5518
    12.1855  13.8448

     occupation numbers 
     1.0000   1.0000   1.0000   1.0000   1.0000   1.0000   1.0000   1.0000
     1.0000   1.0000   1.0000   1.0000   1.0000   1.0000   0.0000   0.0000
     0.0000   0.0000

          k =-0.2480 0.5983-0.0544 (  1642 PWs)   bands (ev):

   -17.1609 -17.1461 -17.0530 -17.0167 -17.0094 -16.9836 -16.9564 -16.9369
   -16.8482 -16.8355  -1.9679  -0.0127   3.8009   4.6022  10.2705  11.4680
    12.5237  14.0434

     occupation numbers 
     1.0000   1.0000   1.0000   1.0000   1.0000   1.0000   1.0000   1.0000
     1.0000   1.0000   1.0000   1.0000   1.0000   1.0000   0.0000   0.0000
     0.0000   0.0000

          k =-0.1915 0.6527-0.1088 (  1646 PWs)   bands (ev):

   -17.1605 -17.1430 -17.0599 -17.0182 -17.0023 -16.9767 -16.9656 -16.9342
   -16.8506 -16.8351  -1.6889  -0.3334   3.6830   4.8571   9.1545  11.2697
    14.0422  14.2708

     occupation numbers 
     1.0000   1.0000   1.0000   1.0000   1.0000   1.0000   1.0000   1.0000
     1.0000   1.0000   1.0000   1.0000   1.0000   1.0000   0.0000   0.0000
     0.0000   0.0000

          k =-0.1958 0.5439-0.0000 (  1647 PWs)   bands (ev):

   -17.1575 -17.1444 -17.0659 -17.0237 -17.0064 -16.9884 -16.9455 -16.9257
   -16.8508 -16.8397  -2.4108   0.5104   4.0872   4.7859   9.9800  10.5587
    12.7933  14.9717

     occupation numbers 
     1.0000   1.0000   1.0000   1.0000   1.0000   1.0000   1.0000   1.0000
     1.0000   1.0000   1.0000   1.0000   1.0000   1.0000   0.0000   0.0000
     0.0000   0.0000

          k =-0.1392 0.5983-0.0544 (  1648 PWs)   bands (ev):

   -17.1560 -17.1424 -17.0692 -17.0247 -17.0100 -16.9724 -16.9562 -16.9241
   -16.8518 -16.8401  -2.0599   0.0744   4.1380   4.7498   9.0284  10.0824
    14.2971  15.2329

     occupation numbers 
     1.0000   1.0000   1.0000   1.0000   1.0000   1.0000   1.0000   1.0000
     1.0000   1.0000   1.0000   1.0000   1.0000   1.0000   0.0000   0.0000
     0.0000   0.0000

          k =-0.0827 0.6527-0.1088 (  1651 PWs)   bands (ev):

   -17.1543 -17.1417 -17.0682 -17.0371 -16.9968 -16.9689 -16.9593 -16.9274
   -16.8517 -16.8406  -1.6226  -0.4390   4.0170   4.9177   8.5219   9.8915
    15.1562  15.7413

     occupation numbers 
     1.0000   1.0000   1.0000   1.0000   1.0000   1.0000   1.0000   1.0000
     1.0000   1.0000   1.0000   1.0000   1.0000   1.0000   0.0000   0.0000
     0.0000   0.0000

          k =-0.0261 0.7071-0.1632 (  1653 PWs)   bands (ev):

   -17.1525 -17.1457 -17.0592 -17.0431 -16.9857 -16.9805 -16.9521 -16.9372
   -16.8480 -16.8419  -1.1807  -0.8911   4.0393   4.6407   8.9313   9.8612
    14.9949  15.1173

     occupation numbers 
     1.0000   1.0000   1.0000   1.0000   1.0000   1.0000   1.0000   1.0000
     1.0000   1.0000   1.0000   1.0000   1.0000   1.0000   0.0000   0.0000
     0.0000   0.0000

          k =-0.0870 0.5439-0.0000 (  1654 PWs)   bands (ev):

   -17.1507 -17.1400 -17.0841 -17.0194 -17.0192 -16.9781 -16.9461 -16.9092
   -16.8551 -16.8464  -2.5256   0.6538   4.6359   4.8307   8.7326   9.5297
    14.5510  15.3510

     occupation numbers 
     1.0000   1.0000   1.0000   1.0000   1.0000   1.0000   1.0000   1.0000
     1.0000   1.0000   1.0000   1.0000   1.0000   1.0000   0.0000   0.0000
     0.0000   0.0000

          k =-0.0305 0.5983-0.0544 (  1654 PWs)   bands (ev):

   -17.1479 -17.1407 -17.0822 -17.0365 -17.0063 -16.9618 -16.9577 -16.9130
   -16.8534 -16.8475  -2.0851   0.0717   4.5609   4.8685   8.3683   9.0782
    15.5291  15.9044

     occupation numbers 
     1.0000   1.0000   1.0000   1.0000   1.0000   1.0000   1.0000   1.0000
     1.0000   1.0000   1.0000   1.0000   1.0000   1.0000   0.0000   0.0000
     0.0000   0.0000

          k = 0.0261 0.6527-0.1088 (  1652 PWs)   bands (ev):

   -17.1466 -17.1452 -17.0703 -17.0472 -16.9939 -16.9710 -16.9495 -16.9262
   -16.8486 -16.8474  -1.5569  -0.5298   4.5033   4.5901   8.7251   8.9736
    15.3540  16.0668

     occupation numbers 
     1.0000   1.0000   1.0000   1.0000   1.0000   1.0000   1.0000   1.0000
     1.0000   1.0000   1.0000   1.0000   1.0000   1.0000   0.0000   0.0000
     0.0000   0.0000

          k = 0.0261 0.6527-0.0000 (  1649 PWs)   bands (ev):

   -17.1434 -17.1427 -17.0773 -17.0534 -16.9935 -16.9703 -16.9444 -16.9197
   -16.8508 -16.8504  -1.5915  -0.5253   4.7495   4.7512   8.2344   8.5308
    16.3556  16.4157

     occupation numbers 
     1.0000   1.0000   1.0000   1.0000   1.0000   1.0000   1.0000   1.0000
     1.0000   1.0000   1.0000   1.0000   1.0000   1.0000   0.0000   0.0000
     0.0000   0.0000

          k =-0.6527 0.0000 0.6527 (  1646 PWs)   bands (ev):

   -17.1474 -17.1422 -17.0658 -17.0593 -16.9835 -16.9807 -16.9376 -16.9317
   -16.8509 -16.8465  -1.1216  -1.0071   4.4779   4.7684   8.3892   8.7849
    16.0243  16.4597

     occupation numbers 
     1.0000   1.0000   1.0000   1.0000   1.0000   1.0000   1.0000   1.0000
     1.0000   1.0000   1.0000   1.0000   1.0000   1.0000   0.0000   0.0000
     0.0000   0.0000

          k =-0.6005-0.0544 0.7071 (  1647 PWs)   bands (ev):

   -17.1492 -17.1412 -17.0725 -17.0468 -16.9916 -16.9731 -16.9485 -16.9261
   -16.8519 -16.8450  -1.4905  -0.6026   4.4839   4.6266   8.7445   8.9142
    14.9672  16.3652

     occupation numbers 
     1.0000   1.0000   1.0000   1.0000   1.0000   1.0000   1.0000   1.0000
     1.0000   1.0000   1.0000   1.0000   1.0000   1.0000   0.0000   0.0000
     0.0000   0.0000

          k =-0.5439 0.0000 0.6527 (  1646 PWs)   bands (ev):

   -17.1555 -17.1426 -17.0593 -17.0430 -16.9874 -16.9787 -16.9523 -16.9372
   -16.8505 -16.8393  -1.2091  -0.8615   4.0361   4.6411   8.9305   9.8647
    14.6306  15.5386

     occupation numbers 
     1.0000   1.0000   1.0000   1.0000   1.0000   1.0000   1.0000   1.0000
     1.0000   1.0000   1.0000   1.0000   1.0000   1.0000   0.0000   0.0000
     0.0000   0.0000

          k =-0.4917-0.0544 0.7071 (  1648 PWs)   bands (ev):

   -17.1579 -17.1427 -17.0577 -17.0321 -16.9904 -16.9779 -16.9586 -16.9411
   -16.8503 -16.8371  -1.3381  -0.6902   4.0406   4.3550   9.9393   9.9831
    13.2069  15.2943

     occupation numbers 
     1.0000   1.0000   1.0000   1.0000   1.0000   1.0000   1.0000   1.0000
     1.0000   1.0000   1.0000   1.0000   1.0000   1.0000   0.0000   0.0000
     0.0000   0.0000

          k =-0.4351 0.0000 0.6527 (  1650 PWs)   bands (ev):

   -17.1621 -17.1445 -17.0465 -17.0252 -16.9949 -16.9773 -16.9660 -16.9471
   -16.8487 -16.8334  -1.2941  -0.7081   3.7607   4.3504  10.1430  11.3104
    12.9148  13.7663

     occupation numbers 
     1.0000   1.0000   1.0000   1.0000   1.0000   1.0000   1.0000   1.0000
     1.0000   1.0000   1.0000   1.0000   1.0000   1.0000   0.0000   0.0000
     0.0000   0.0000

          k =-0.3829-0.0544 0.7071 (  1639 PWs)   bands (ev):

   -17.1643 -17.1427 -17.0459 -17.0182 -16.9880 -16.9873 -16.9657 -16.9523
   -16.8501 -16.8312  -1.1762  -0.8038   3.7603   4.2134  11.0972  11.4924
    11.8408  13.5276

     occupation numbers 
     1.0000   1.0000   1.0000   1.0000   1.0000   1.0000   1.0000   1.0000
     1.0000   1.0000   1.0000   1.0000   1.0000   1.0000   0.0000   0.0000
     0.0000   0.0000

          k =-0.3264 0.0000 0.6527 (  1642 PWs)   bands (ev):

   -17.1648 -17.1438 -17.0422 -17.0204 -17.0022 -16.9734 -16.9687 -16.9500
   -16.8493 -16.8311  -1.3971  -0.5854   3.7764   4.2070  11.0574  11.7137
    12.0926  13.0753

     occupation numbers 
     1.0000   1.0000   1.0000   1.0000   1.0000   1.0000   1.0000   1.0000
     1.0000   1.0000   1.0000   1.0000   1.0000   1.0000   0.0000   0.0000
     0.0000   0.0000

          k =-0.2741-0.0544 0.7071 (  1644 PWs)   bands (ev):

   -17.1663 -17.1390 -17.0492 -17.0231 -16.9918 -16.9805 -16.9625 -16.9507
   -16.8531 -16.8294  -1.0502  -0.9460   3.7851   4.2922   9.8478  11.7275
    13.2550  13.3128

     occupation numbers 
     1.0000   1.0000   1.0000   1.0000   1.0000   1.0000   1.0000   1.0000
     1.0000   1.0000   1.0000   1.0000   1.0000   1.0000   0.0000   0.0000
     0.0000   0.0000

          k =-0.2176 0.0000 0.6527 (  1651 PWs)   bands (ev):

   -17.1633 -17.1392 -17.0551 -17.0338 -16.9993 -16.9689 -16.9610 -16.9393
   -16.8533 -16.8328  -1.5097  -0.5188   4.0526   4.3337   9.6779  10.3400
    13.5993  14.8077

     occupation numbers 
     1.0000   1.0000   1.0000   1.0000   1.0000   1.0000   1.0000   1.0000
     1.0000   1.0000   1.0000   1.0000   1.0000   1.0000   0.0000   0.0000
     0.0000   0.0000

          k =-0.1654-0.0544 0.7071 (  1652 PWs)   bands (ev):

   -17.1641 -17.1329 -17.0609 -17.0433 -16.9903 -16.9757 -16.9472 -16.9415
   -16.8581 -16.8318  -1.0955  -0.9721   4.1221   4.5070   8.6994  10.2032
    14.9385  15.1347

     occupation numbers 
     1.0000   1.0000   1.0000   1.0000   1.0000   1.0000   1.0000   1.0000
     1.0000   1.0000   1.0000   1.0000   1.0000   1.0000   0.0000   0.0000
     0.0000   0.0000

          k =-0.1088 0.0000 0.6527 (  1648 PWs)   bands (ev):

   -17.1594 -17.1323 -17.0714 -17.0486 -16.9971 -16.9673 -16.9497 -16.9245
   -16.8590 -16.8368  -1.5987  -0.4985   4.4013   4.6988   8.5837   9.1405
    15.3851  16.1363

     occupation numbers 
     1.0000   1.0000   1.0000   1.0000   1.0000   1.0000   1.0000   1.0000
     1.0000   1.0000   1.0000   1.0000   1.0000   1.0000   0.0000   0.0000
     0.0000   0.0000

          k = 0.0000 0.0000 0.6527 (  1648 PWs)   bands (ev):

   -17.1572 -17.1284 -17.0788 -17.0550 -16.9966 -16.9668 -16.9443 -16.9179
   -16.8620 -16.8390  -1.6324  -0.4965   4.5731   4.9380   8.1348   8.6528
    16.4436  16.5273

     occupation numbers 
     1.0000   1.0000   1.0000   1.0000   1.0000   1.0000   1.0000   1.0000
     1.0000   1.0000   1.0000   1.0000   1.0000   1.0000   0.0002   0.0000
     0.0000   0.0000

          k =-0.0566-0.0544 0.7071 (  1648 PWs)   bands (ev):

   -17.1598 -17.1290 -17.0675 -17.0604 -16.9906 -16.9733 -16.9362 -16.9317
   -16.8612 -16.8362  -1.2240  -0.9107   4.5920   4.6301   8.1889   9.0501
    16.1536  16.4136

     occupation numbers 
     1.0000   1.0000   1.0000   1.0000   1.0000   1.0000   1.0000   1.0000
     1.0000   1.0000   1.0000   1.0000   1.0000   1.0000   0.0001   0.0000
     0.0000   0.0000

          k =-0.6266 0.6527-0.0000 (  1646 PWs)   bands (ev):

   -17.1576 -17.1326 -17.0668 -17.0606 -16.9921 -16.9717 -16.9420 -16.9255
   -16.8585 -16.8385  -1.3184  -0.8268   4.3351   4.9524   8.5426   8.6147
    16.3394  16.3577

     occupation numbers 
     1.0000   1.0000   1.0000   1.0000   1.0000   1.0000   1.0000   1.0000
     1.0000   1.0000   1.0000   1.0000   1.0000   1.0000   0.0000   0.0000
     0.0000   0.0000

          k =-0.5178 0.6527-0.0000 (  1649 PWs)   bands (ev):

   -17.1597 -17.1398 -17.0598 -17.0443 -16.9948 -16.9708 -16.9563 -16.9313
   -16.8527 -16.8365  -1.3870  -0.7055   3.9587   4.7799   9.1905   9.5476
    15.0880  15.1684

     occupation numbers 
     1.0000   1.0000   1.0000   1.0000   1.0000   1.0000   1.0000   1.0000
     1.0000   1.0000   1.0000   1.0000   1.0000   1.0000   0.0000   0.0000
     0.0000   0.0000

          k =-0.4090 0.6527-0.0000 (  1645 PWs)   bands (ev):

   -17.1629 -17.1453 -17.0451 -17.0276 -17.0010 -16.9705 -16.9696 -16.9427
   -16.8480 -16.8333  -1.4513  -0.5668   3.7389   4.4135  10.4733  10.9190
    13.2807  13.4554

     occupation numbers 
     1.0000   1.0000   1.0000   1.0000   1.0000   1.0000   1.0000   1.0000
     1.0000   1.0000   1.0000   1.0000   1.0000   1.0000   0.0000   0.0000
     0.0000   0.0000

          k =-0.3002 0.6527-0.0000 (  1644 PWs)   bands (ev):

   -17.1632 -17.1469 -17.0377 -17.0225 -17.0070 -16.9722 -16.9689 -16.9480
   -16.8467 -16.8329  -1.5238  -0.4584   3.7884   4.2032  11.3944  11.5967
    12.2690  12.6596

     occupation numbers 
     1.0000   1.0000   1.0000   1.0000   1.0000   1.0000   1.0000   1.0000
     1.0000   1.0000   1.0000   1.0000   1.0000   1.0000   0.0000   0.0000
     0.0000   0.0000

          k =-0.1915 0.6527-0.0000 (  1651 PWs)   bands (ev):

   -17.1590 -17.1450 -17.0514 -17.0333 -17.0012 -16.9675 -16.9637 -16.9397
   -16.8485 -16.8367  -1.5911  -0.4224   4.0966   4.2702   9.8882  10.1733
    14.0222  14.3250

     occupation numbers 
     1.0000   1.0000   1.0000   1.0000   1.0000   1.0000   1.0000   1.0000
     1.0000   1.0000   1.0000   1.0000   1.0000   1.0000   0.0000   0.0000
     0.0000   0.0000

          k =-0.0827 0.6527-0.0000 (  1658 PWs)   bands (ev):

   -17.1511 -17.1421 -17.0683 -17.0474 -16.9963 -16.9684 -16.9510 -16.9263
   -16.8513 -16.8439  -1.6226  -0.4566   4.5296   4.5437   8.7094   9.0322
    15.7768  15.8118

     occupation numbers 
     1.0000   1.0000   1.0000   1.0000   1.0000   1.0000   1.0000   1.0000
     1.0000   1.0000   1.0000   1.0000   1.0000   1.0000   0.0000   0.0000
     0.0000   0.0000

     the Fermi energy is     7.5728 ev

!    total energy              =    -426.37853482 Ry
     estimated scf accuracy    <          4.0E-12 Ry
     smearing contrib. (-TS)   =       0.00014751 Ry
     internal energy E=F+TS    =    -426.37868233 Ry

     The total energy is F=E-TS. E is the sum of the following terms:
     one-electron contribution =    -284.64808783 Ry
     hartree contribution      =     167.33031181 Ry
     xc contribution           =    -115.21821243 Ry
     ewald contribution        =    -193.84269389 Ry

     convergence has been achieved in  10 iterations

     Forces acting on atoms (cartesian axes, Ry/au):

     atom    1 type  1   force =     0.00000000    0.00000000   -0.01075951
     atom    2 type  1   force =     0.00000000    0.00000000    0.01075951
     The non-local contrib.  to forces
     atom    1 type  1   force =     0.00000000   -0.00000000   -0.02374056
     atom    2 type  1   force =     0.00000000    0.00000000    0.02374056
     The ionic contribution  to forces
     atom    1 type  1   force =     0.00000000    0.00000000   -1.32957452
     atom    2 type  1   force =     0.00000000    0.00000000    1.32957452
     The local contribution  to forces
     atom    1 type  1   force =     0.00000000   -0.00000000    1.33982986
     atom    2 type  1   force =     0.00000000    0.00000000   -1.33982986
     The core correction contribution to forces
     atom    1 type  1   force =     0.00000000   -0.00000000    0.00272562
     atom    2 type  1   force =     0.00000000    0.00000000   -0.00272562
     The Hubbard contrib.    to forces
     atom    1 type  1   force =     0.00000000    0.00000000    0.00000000
     atom    2 type  1   force =     0.00000000    0.00000000    0.00000000
     The SCF correction term to forces
     atom    1 type  1   force =     0.00000000   -0.00000000    0.00000009
     atom    2 type  1   force =     0.00000000   -0.00000000   -0.00000009

     Total force =     0.015216     Total SCF correction =     0.000000


     Computing stress (Cartesian axis) and pressure

          total   stress  (Ry/bohr**3)                   (kbar)     P=      -28.19
  -0.00018487   0.00018800  -0.00000000          -27.20       27.66       -0.00
   0.00018800  -0.00019633   0.00000000           27.66      -28.88        0.00
  -0.00000000   0.00000000  -0.00019369           -0.00        0.00      -28.49

     kinetic stress (kbar)   9460.65     11.96     -0.00
                               11.96   9460.35     -0.00
                                0.00     -0.00   9459.26

     local   stress (kbar)    809.17  -2243.35      0.00
                            -2243.35   1043.95     -0.00
                                0.00     -0.00    946.11

     nonloc. stress (kbar)   2823.07     13.89     -0.00
                               13.89   2821.70     -0.00
                                0.00     -0.00   2822.57

     hartree stress (kbar)  25463.65    922.04      0.00
                              922.04  25367.25      0.00
                                0.00      0.00  25403.51

     exc-cor stress (kbar)  18587.19      0.49      0.00
                                0.49  18587.14     -0.00
                                0.00     -0.00  18587.17

     corecor stress (kbar) -27804.72     -0.78     -0.00
                               -0.78 -27804.64     -0.00
                               -0.00     -0.00 -27804.69

     ewald   stress (kbar) -29366.21   1323.41     -0.00
                             1323.41 -29504.62     -0.00
                               -0.00     -0.00 -29442.41

     hubbard stress (kbar)      0.00      0.00      0.00
                                0.00      0.00      0.00
                                0.00      0.00      0.00

     DFT-D   stress (kbar)      0.00      0.00      0.00
                                0.00      0.00      0.00
                                0.00      0.00      0.00

     XDM     stress (kbar)      0.00      0.00      0.00
                                0.00      0.00      0.00
                                0.00      0.00      0.00

     dft-nl  stress (kbar)      0.00      0.00      0.00
                                0.00      0.00      0.00
                                0.00      0.00      0.00

     TS-vdW  stress (kbar)      0.00      0.00      0.00
                                0.00      0.00      0.00
                                0.00      0.00      0.00

     MDB     stress (kbar)      0.00      0.00      0.00
                                0.00      0.00      0.00
                                0.00      0.00      0.00

     3D-RISM stress (kbar)      0.00      0.00      0.00
                                0.00      0.00      0.00
                                0.00      0.00      0.00


     Writing all to output data dir ./out/aiida.save/ :
     XML data file, charge density, pseudopotentials, collected wavefunctions

     init_run     :     60.74s CPU     30.32s WALL (       1 calls)
     electrons    :   1995.74s CPU    982.82s WALL (       1 calls)
     forces       :      8.29s CPU      3.66s WALL (       1 calls)
     stress       :     38.94s CPU     17.56s WALL (       1 calls)

     Called by init_run:
     wfcinit      :     60.16s CPU     29.72s WALL (       1 calls)
     wfcinit:atom :      0.90s CPU      0.46s WALL (     595 calls)
     wfcinit:wfcr :     53.95s CPU     26.74s WALL (     595 calls)
     potinit      :      0.06s CPU      0.07s WALL (       1 calls)
     hinit0       :      0.24s CPU      0.24s WALL (       1 calls)

     Called by electrons:
     c_bands      :   1684.21s CPU    819.58s WALL (      11 calls)
     sum_band     :    308.61s CPU    160.37s WALL (      11 calls)
     v_of_rho     :      0.71s CPU      0.70s WALL (      11 calls)
     v_h          :      0.04s CPU      0.04s WALL (      11 calls)
     v_xc         :      0.90s CPU      0.83s WALL (      13 calls)
     newd         :      2.22s CPU      2.22s WALL (      11 calls)
     mix_rho      :      0.07s CPU      0.07s WALL (      11 calls)

     Called by c_bands:
     init_us_2    :     39.82s CPU     16.95s WALL (   14875 calls)
     cegterg      :   1614.12s CPU    785.84s WALL (    6545 calls)

     Called by sum_band:
     sum_band:wei :      0.49s CPU      0.26s WALL (      11 calls)
     sum_band:loo :    302.96s CPU    156.91s WALL (      11 calls)
     sum_band:buf :      1.94s CPU      0.67s WALL (    6545 calls)
     sum_band:ini :     17.10s CPU      7.57s WALL (    6545 calls)
     sum_band:cal :     13.28s CPU      7.13s WALL (    6545 calls)
     sum_band:bec :      0.54s CPU      0.18s WALL (    6545 calls)
     addusdens    :      5.03s CPU      3.10s WALL (      11 calls)
                                        0.00s GPU  (      11 calls)
     addusd:skk   :      0.01s CPU      0.01s WALL (      11 calls)
                                        0.00s GPU  (      11 calls)

     Called by *egterg:
     cdiaghg      :     45.57s CPU     16.39s WALL (   20217 calls)
     cegterg:over :     39.89s CPU     10.14s WALL (   14267 calls)
     cegterg:upda :     22.51s CPU      7.34s WALL (   14267 calls)
     cegterg:last :     39.81s CPU     10.63s WALL (   12395 calls)
     h_psi        :   1455.40s CPU    749.36s WALL (   21407 calls)
     s_psi        :     25.90s CPU      7.57s WALL (   21407 calls)
     g_psi        :      7.70s CPU      2.32s WALL (   14267 calls)

     Called by h_psi:
     h_psi:calbec :     39.41s CPU     22.43s WALL (   21407 calls)
     vloc_psi     :   1385.15s CPU    717.18s WALL (   21407 calls)
                                        0.00s GPU  (   21407 calls)
     add_vuspsi   :     26.41s CPU      8.06s WALL (   21407 calls)

     General routines
     calbec       :     67.45s CPU     35.94s WALL (   38067 calls)
     fft          :      0.51s CPU      0.47s WALL (     167 calls)
     ffts         :      0.05s CPU      0.03s WALL (      22 calls)
     fftw         :   1486.10s CPU    777.09s WALL (  719650 calls)
     interpolate  :      0.04s CPU      0.04s WALL (      11 calls)

     Parallel routines

     PWSCF        :  35m 4.22s CPU  17m14.96s WALL


   This run was terminated on:   0:49:52  25Dec2025            

=------------------------------------------------------------------------------=
   JOB DONE.
=------------------------------------------------------------------------------=
