
     Program PWSCF v.7.4.1 starts on 25Dec2025 at  0:25:54 

     This program is part of the open-source Quantum ESPRESSO suite
     for quantum simulation of materials; please cite
         "P. Giannozzi et al., J. Phys.:Condens. Matter 21 395502 (2009);
         "P. Giannozzi et al., J. Phys.:Condens. Matter 29 465901 (2017);
         "P. Giannozzi et al., J. Chem. Phys. 152 154105 (2020);
          URL http://www.quantum-espresso.org", 
     in publications or presentations arising from this work. More details at
     http://www.quantum-espresso.org/quote

     Parallel version (MPI), running on     1 processors

     MPI processes distributed on     1 nodes
     520 MiB available memory on the printing compute node when the environment starts

     Waiting for input...
     Reading input from standard input
Warning: card &CELL ignored

     Current dimensions of program PWSCF are:
     Max number of different atomic species (ntypx) = 10
     Max number of k-points (npk) =  40000
     Max angular momentum in pseudopotentials (lmaxx) =  4
     Message from routine setup:
     using ibrav=0 with symmetry is DISCOURAGED, use correct ibrav instead

     Subspace diagonalization in iterative solution of the eigenvalue problem:
     a serial algorithm will be used


     G-vector sticks info
     --------------------
     sticks:   dense  smooth     PW     G-vecs:    dense   smooth      PW
     Sum        1369     673    211                33079    11575    2085

     Using Slab Decomposition



     bravais-lattice index     =            0
     lattice parameter (alat)  =       7.3925  a.u.
     unit-cell volume          =     285.6702 (a.u.)^3
     number of atoms/cell      =            2
     number of atomic types    =            1
     number of electrons       =        28.00
     number of Kohn-Sham states=           18
     kinetic-energy cutoff     =      45.0000  Ry
     charge density cutoff     =     360.0000  Ry
     scf convergence threshold =      4.0E-10
     mixing beta               =       0.4000
     number of iterations used =            8  plain     mixing
     Exchange-correlation= SLA  PW   PSX  PSC
                           (   1   4  10   8   0   0   0)

     celldm(1)=   7.392534  celldm(2)=   0.000000  celldm(3)=   0.000000
     celldm(4)=   0.000000  celldm(5)=   0.000000  celldm(6)=   0.000000

     crystal axes: (cart. coord. in units of alat)
               a(1) = (   0.000000   0.707107   0.707107 )  
               a(2) = (   0.707107   0.000000   0.707107 )  
               a(3) = (   0.707107   0.707107   0.000000 )  

     reciprocal axes: (cart. coord. in units 2 pi/alat)
               b(1) = ( -0.707107  0.707107  0.707107 )  
               b(2) = (  0.707107 -0.707107  0.707107 )  
               b(3) = (  0.707107  0.707107 -0.707107 )  


     PseudoPot. # 1 for Ge read from file:
     ./pseudo/ge_pbesol_v1.4.uspp.F.UPF
     MD5 check sum: 7bed0412183f5e553a4d27ec7023354d
     Pseudo is Ultrasoft + core correction, Zval = 14.0
     Generated by new atomic code, or converted to UPF format
     Using radial grid of  873 points,  6 beta functions with: 
                l(1) =   0
                l(2) =   0
                l(3) =   1
                l(4) =   1
                l(5) =   2
                l(6) =   2
     Q(r) pseudized with  8 coefficients,  rinner =    1.400   1.400   1.400
                                                       1.400   1.400

     atomic species   valence    mass     pseudopotential
     Ge               14.00    72.64000     Ge( 1.00)

     48 Sym. Ops., with inversion, found (24 have fractional translation)


                                    s                        frac. trans.

      isym =  1     identity                                     

 cryst.   s( 1) = (     1          0          0      )
                  (     0          1          0      )
                  (     0          0          1      )

 cart.    s( 1) = (  1.0000000  0.0000000  0.0000000 )
                  (  0.0000000  1.0000000  0.0000000 )
                  (  0.0000000  0.0000000  1.0000000 )


      isym =  2     180 deg rotation - cart. axis [0,0,1]        

 cryst.   s( 2) = (     0          1         -1      )
                  (     1          0         -1      )
                  (     0          0         -1      )

 cart.    s( 2) = ( -1.0000000  0.0000000  0.0000000 )
                  (  0.0000000 -1.0000000  0.0000000 )
                  (  0.0000000  0.0000000  1.0000000 )


      isym =  3     180 deg rotation - cart. axis [0,1,0]        

 cryst.   s( 3) = (     0         -1          1      )
                  (     0         -1          0      )
                  (     1         -1          0      )

 cart.    s( 3) = ( -1.0000000  0.0000000  0.0000000 )
                  (  0.0000000  1.0000000  0.0000000 )
                  (  0.0000000  0.0000000 -1.0000000 )


      isym =  4     180 deg rotation - cart. axis [1,0,0]        

 cryst.   s( 4) = (    -1          0          0      )
                  (    -1          0          1      )
                  (    -1          1          0      )

 cart.    s( 4) = (  1.0000000  0.0000000  0.0000000 )
                  (  0.0000000 -1.0000000  0.0000000 )
                  (  0.0000000  0.0000000 -1.0000000 )


      isym =  5     180 deg rotation - cart. axis [1,1,0]        

 cryst.   s( 5) = (    -1          0          1      )    f =( -0.2500000 )
                  (     0         -1          1      )       ( -0.2500000 )
                  (     0          0          1      )       ( -0.2500000 )

 cart.    s( 5) = (  0.0000000  1.0000000  0.0000000 )    f =( -0.3535534 )
                  (  1.0000000  0.0000000  0.0000000 )       ( -0.3535534 )
                  (  0.0000000  0.0000000 -1.0000000 )       ( -0.3535534 )


      isym =  6     180 deg rotation - cart. axis [1,-1,0]       

 cryst.   s( 6) = (     0         -1          0      )    f =( -0.2500000 )
                  (    -1          0          0      )       ( -0.2500000 )
                  (     0          0         -1      )       ( -0.2500000 )

 cart.    s( 6) = (  0.0000000 -1.0000000  0.0000000 )    f =( -0.3535534 )
                  ( -1.0000000  0.0000000  0.0000000 )       ( -0.3535534 )
                  (  0.0000000  0.0000000 -1.0000000 )       ( -0.3535534 )


      isym =  7      90 deg rotation - cart. axis [0,0,-1]       

 cryst.   s( 7) = (     0          1          0      )    f =( -0.2500000 )
                  (     0          1         -1      )       ( -0.2500000 )
                  (    -1          1          0      )       ( -0.2500000 )

 cart.    s( 7) = (  0.0000000  1.0000000  0.0000000 )    f =( -0.3535534 )
                  ( -1.0000000  0.0000000  0.0000000 )       ( -0.3535534 )
                  (  0.0000000  0.0000000  1.0000000 )       ( -0.3535534 )


      isym =  8      90 deg rotation - cart. axis [0,0,1]        

 cryst.   s( 8) = (     1          0         -1      )    f =( -0.2500000 )
                  (     1          0          0      )       ( -0.2500000 )
                  (     1         -1          0      )       ( -0.2500000 )

 cart.    s( 8) = (  0.0000000 -1.0000000  0.0000000 )    f =( -0.3535534 )
                  (  1.0000000  0.0000000  0.0000000 )       ( -0.3535534 )
                  (  0.0000000  0.0000000  1.0000000 )       ( -0.3535534 )


      isym =  9     180 deg rotation - cart. axis [1,0,1]        

 cryst.   s( 9) = (    -1          1          0      )    f =( -0.2500000 )
                  (     0          1          0      )       ( -0.2500000 )
                  (     0          1         -1      )       ( -0.2500000 )

 cart.    s( 9) = (  0.0000000  0.0000000  1.0000000 )    f =( -0.3535534 )
                  (  0.0000000 -1.0000000  0.0000000 )       ( -0.3535534 )
                  (  1.0000000  0.0000000  0.0000000 )       ( -0.3535534 )


      isym = 10     180 deg rotation - cart. axis [-1,0,1]       

 cryst.   s(10) = (     0          0         -1      )    f =( -0.2500000 )
                  (     0         -1          0      )       ( -0.2500000 )
                  (    -1          0          0      )       ( -0.2500000 )

 cart.    s(10) = (  0.0000000  0.0000000 -1.0000000 )    f =( -0.3535534 )
                  (  0.0000000 -1.0000000  0.0000000 )       ( -0.3535534 )
                  ( -1.0000000  0.0000000  0.0000000 )       ( -0.3535534 )


      isym = 11      90 deg rotation - cart. axis [0,1,0]        

 cryst.   s(11) = (     0          0          1      )    f =( -0.2500000 )
                  (    -1          0          1      )       ( -0.2500000 )
                  (     0         -1          1      )       ( -0.2500000 )

 cart.    s(11) = (  0.0000000  0.0000000  1.0000000 )    f =( -0.3535534 )
                  (  0.0000000  1.0000000  0.0000000 )       ( -0.3535534 )
                  ( -1.0000000  0.0000000  0.0000000 )       ( -0.3535534 )


      isym = 12      90 deg rotation - cart. axis [0,-1,0]       

 cryst.   s(12) = (     1         -1          0      )    f =( -0.2500000 )
                  (     1          0         -1      )       ( -0.2500000 )
                  (     1          0          0      )       ( -0.2500000 )

 cart.    s(12) = (  0.0000000  0.0000000 -1.0000000 )    f =( -0.3535534 )
                  (  0.0000000  1.0000000  0.0000000 )       ( -0.3535534 )
                  (  1.0000000  0.0000000  0.0000000 )       ( -0.3535534 )


      isym = 13     180 deg rotation - cart. axis [0,1,1]        

 cryst.   s(13) = (     1          0          0      )    f =( -0.2500000 )
                  (     1         -1          0      )       ( -0.2500000 )
                  (     1          0         -1      )       ( -0.2500000 )

 cart.    s(13) = ( -1.0000000  0.0000000  0.0000000 )    f =( -0.3535534 )
                  (  0.0000000  0.0000000  1.0000000 )       ( -0.3535534 )
                  (  0.0000000  1.0000000  0.0000000 )       ( -0.3535534 )


      isym = 14     180 deg rotation - cart. axis [0,1,-1]       

 cryst.   s(14) = (    -1          0          0      )    f =( -0.2500000 )
                  (     0          0         -1      )       ( -0.2500000 )
                  (     0         -1          0      )       ( -0.2500000 )

 cart.    s(14) = ( -1.0000000  0.0000000  0.0000000 )    f =( -0.3535534 )
                  (  0.0000000  0.0000000 -1.0000000 )       ( -0.3535534 )
                  (  0.0000000 -1.0000000  0.0000000 )       ( -0.3535534 )


      isym = 15      90 deg rotation - cart. axis [-1,0,0]       

 cryst.   s(15) = (     0         -1          1      )    f =( -0.2500000 )
                  (     0          0          1      )       ( -0.2500000 )
                  (    -1          0          1      )       ( -0.2500000 )

 cart.    s(15) = (  1.0000000  0.0000000  0.0000000 )    f =( -0.3535534 )
                  (  0.0000000  0.0000000  1.0000000 )       ( -0.3535534 )
                  (  0.0000000 -1.0000000  0.0000000 )       ( -0.3535534 )


      isym = 16      90 deg rotation - cart. axis [1,0,0]        

 cryst.   s(16) = (     0          1         -1      )    f =( -0.2500000 )
                  (    -1          1          0      )       ( -0.2500000 )
                  (     0          1          0      )       ( -0.2500000 )

 cart.    s(16) = (  1.0000000  0.0000000  0.0000000 )    f =( -0.3535534 )
                  (  0.0000000  0.0000000 -1.0000000 )       ( -0.3535534 )
                  (  0.0000000  1.0000000  0.0000000 )       ( -0.3535534 )


      isym = 17     120 deg rotation - cart. axis [-1,-1,-1]     

 cryst.   s(17) = (     0          0          1      )
                  (     1          0          0      )
                  (     0          1          0      )

 cart.    s(17) = (  0.0000000  1.0000000  0.0000000 )
                  (  0.0000000  0.0000000  1.0000000 )
                  (  1.0000000  0.0000000  0.0000000 )


      isym = 18     120 deg rotation - cart. axis [-1,1,1]       

 cryst.   s(18) = (     1         -1          0      )
                  (     0         -1          1      )
                  (     0         -1          0      )

 cart.    s(18) = (  0.0000000 -1.0000000  0.0000000 )
                  (  0.0000000  0.0000000  1.0000000 )
                  ( -1.0000000  0.0000000  0.0000000 )


      isym = 19     120 deg rotation - cart. axis [1,1,-1]       

 cryst.   s(19) = (    -1          1          0      )
                  (    -1          0          0      )
                  (    -1          0          1      )

 cart.    s(19) = (  0.0000000  1.0000000  0.0000000 )
                  (  0.0000000  0.0000000 -1.0000000 )
                  ( -1.0000000  0.0000000  0.0000000 )


      isym = 20     120 deg rotation - cart. axis [1,-1,1]       

 cryst.   s(20) = (     0          0         -1      )
                  (     0          1         -1      )
                  (     1          0         -1      )

 cart.    s(20) = (  0.0000000 -1.0000000  0.0000000 )
                  (  0.0000000  0.0000000 -1.0000000 )
                  (  1.0000000  0.0000000  0.0000000 )


      isym = 21     120 deg rotation - cart. axis [1,1,1]        

 cryst.   s(21) = (     0          1          0      )
                  (     0          0          1      )
                  (     1          0          0      )

 cart.    s(21) = (  0.0000000  0.0000000  1.0000000 )
                  (  1.0000000  0.0000000  0.0000000 )
                  (  0.0000000  1.0000000  0.0000000 )


      isym = 22     120 deg rotation - cart. axis [-1,1,-1]      

 cryst.   s(22) = (    -1          0          1      )
                  (    -1          1          0      )
                  (    -1          0          0      )

 cart.    s(22) = (  0.0000000  0.0000000  1.0000000 )
                  ( -1.0000000  0.0000000  0.0000000 )
                  (  0.0000000 -1.0000000  0.0000000 )


      isym = 23     120 deg rotation - cart. axis [1,-1,-1]      

 cryst.   s(23) = (     1          0         -1      )
                  (     0          0         -1      )
                  (     0          1         -1      )

 cart.    s(23) = (  0.0000000  0.0000000 -1.0000000 )
                  ( -1.0000000  0.0000000  0.0000000 )
                  (  0.0000000  1.0000000  0.0000000 )


      isym = 24     120 deg rotation - cart. axis [-1,-1,1]      

 cryst.   s(24) = (     0         -1          0      )
                  (     1         -1          0      )
                  (     0         -1          1      )

 cart.    s(24) = (  0.0000000  0.0000000 -1.0000000 )
                  (  1.0000000  0.0000000  0.0000000 )
                  (  0.0000000 -1.0000000  0.0000000 )


      isym = 25     inversion                                    

 cryst.   s(25) = (    -1          0          0      )    f =( -0.2500000 )
                  (     0         -1          0      )       ( -0.2500000 )
                  (     0          0         -1      )       ( -0.2500000 )

 cart.    s(25) = ( -1.0000000  0.0000000  0.0000000 )    f =( -0.3535534 )
                  (  0.0000000 -1.0000000  0.0000000 )       ( -0.3535534 )
                  (  0.0000000  0.0000000 -1.0000000 )       ( -0.3535534 )


      isym = 26     inv. 180 deg rotation - cart. axis [0,0,1]   

 cryst.   s(26) = (     0         -1          1      )    f =( -0.2500000 )
                  (    -1          0          1      )       ( -0.2500000 )
                  (     0          0          1      )       ( -0.2500000 )

 cart.    s(26) = (  1.0000000  0.0000000  0.0000000 )    f =( -0.3535534 )
                  (  0.0000000  1.0000000  0.0000000 )       ( -0.3535534 )
                  (  0.0000000  0.0000000 -1.0000000 )       ( -0.3535534 )


      isym = 27     inv. 180 deg rotation - cart. axis [0,1,0]   

 cryst.   s(27) = (     0          1         -1      )    f =( -0.2500000 )
                  (     0          1          0      )       ( -0.2500000 )
                  (    -1          1          0      )       ( -0.2500000 )

 cart.    s(27) = (  1.0000000  0.0000000  0.0000000 )    f =( -0.3535534 )
                  (  0.0000000 -1.0000000  0.0000000 )       ( -0.3535534 )
                  (  0.0000000  0.0000000  1.0000000 )       ( -0.3535534 )


      isym = 28     inv. 180 deg rotation - cart. axis [1,0,0]   

 cryst.   s(28) = (     1          0          0      )    f =( -0.2500000 )
                  (     1          0         -1      )       ( -0.2500000 )
                  (     1         -1          0      )       ( -0.2500000 )

 cart.    s(28) = ( -1.0000000  0.0000000  0.0000000 )    f =( -0.3535534 )
                  (  0.0000000  1.0000000  0.0000000 )       ( -0.3535534 )
                  (  0.0000000  0.0000000  1.0000000 )       ( -0.3535534 )


      isym = 29     inv. 180 deg rotation - cart. axis [1,1,0]   

 cryst.   s(29) = (     1          0         -1      )
                  (     0          1         -1      )
                  (     0          0         -1      )

 cart.    s(29) = (  0.0000000 -1.0000000  0.0000000 )
                  ( -1.0000000  0.0000000  0.0000000 )
                  (  0.0000000  0.0000000  1.0000000 )


      isym = 30     inv. 180 deg rotation - cart. axis [1,-1,0]  

 cryst.   s(30) = (     0          1          0      )
                  (     1          0          0      )
                  (     0          0          1      )

 cart.    s(30) = (  0.0000000  1.0000000  0.0000000 )
                  (  1.0000000  0.0000000  0.0000000 )
                  (  0.0000000  0.0000000  1.0000000 )


      isym = 31     inv.  90 deg rotation - cart. axis [0,0,-1]  

 cryst.   s(31) = (     0         -1          0      )
                  (     0         -1          1      )
                  (     1         -1          0      )

 cart.    s(31) = (  0.0000000 -1.0000000  0.0000000 )
                  (  1.0000000  0.0000000  0.0000000 )
                  (  0.0000000  0.0000000 -1.0000000 )


      isym = 32     inv.  90 deg rotation - cart. axis [0,0,1]   

 cryst.   s(32) = (    -1          0          1      )
                  (    -1          0          0      )
                  (    -1          1          0      )

 cart.    s(32) = (  0.0000000  1.0000000  0.0000000 )
                  ( -1.0000000  0.0000000  0.0000000 )
                  (  0.0000000  0.0000000 -1.0000000 )


      isym = 33     inv. 180 deg rotation - cart. axis [1,0,1]   

 cryst.   s(33) = (     1         -1          0      )
                  (     0         -1          0      )
                  (     0         -1          1      )

 cart.    s(33) = (  0.0000000  0.0000000 -1.0000000 )
                  (  0.0000000  1.0000000  0.0000000 )
                  ( -1.0000000  0.0000000  0.0000000 )


      isym = 34     inv. 180 deg rotation - cart. axis [-1,0,1]  

 cryst.   s(34) = (     0          0          1      )
                  (     0          1          0      )
                  (     1          0          0      )

 cart.    s(34) = (  0.0000000  0.0000000  1.0000000 )
                  (  0.0000000  1.0000000  0.0000000 )
                  (  1.0000000  0.0000000  0.0000000 )


      isym = 35     inv.  90 deg rotation - cart. axis [0,1,0]   

 cryst.   s(35) = (     0          0         -1      )
                  (     1          0         -1      )
                  (     0          1         -1      )

 cart.    s(35) = (  0.0000000  0.0000000 -1.0000000 )
                  (  0.0000000 -1.0000000  0.0000000 )
                  (  1.0000000  0.0000000  0.0000000 )


      isym = 36     inv.  90 deg rotation - cart. axis [0,-1,0]  

 cryst.   s(36) = (    -1          1          0      )
                  (    -1          0          1      )
                  (    -1          0          0      )

 cart.    s(36) = (  0.0000000  0.0000000  1.0000000 )
                  (  0.0000000 -1.0000000  0.0000000 )
                  ( -1.0000000  0.0000000  0.0000000 )


      isym = 37     inv. 180 deg rotation - cart. axis [0,1,1]   

 cryst.   s(37) = (    -1          0          0      )
                  (    -1          1          0      )
                  (    -1          0          1      )

 cart.    s(37) = (  1.0000000  0.0000000  0.0000000 )
                  (  0.0000000  0.0000000 -1.0000000 )
                  (  0.0000000 -1.0000000  0.0000000 )


      isym = 38     inv. 180 deg rotation - cart. axis [0,1,-1]  

 cryst.   s(38) = (     1          0          0      )
                  (     0          0          1      )
                  (     0          1          0      )

 cart.    s(38) = (  1.0000000  0.0000000  0.0000000 )
                  (  0.0000000  0.0000000  1.0000000 )
                  (  0.0000000  1.0000000  0.0000000 )


      isym = 39     inv.  90 deg rotation - cart. axis [-1,0,0]  

 cryst.   s(39) = (     0          1         -1      )
                  (     0          0         -1      )
                  (     1          0         -1      )

 cart.    s(39) = ( -1.0000000  0.0000000  0.0000000 )
                  (  0.0000000  0.0000000 -1.0000000 )
                  (  0.0000000  1.0000000  0.0000000 )


      isym = 40     inv.  90 deg rotation - cart. axis [1,0,0]   

 cryst.   s(40) = (     0         -1          1      )
                  (     1         -1          0      )
                  (     0         -1          0      )

 cart.    s(40) = ( -1.0000000  0.0000000  0.0000000 )
                  (  0.0000000  0.0000000  1.0000000 )
                  (  0.0000000 -1.0000000  0.0000000 )


      isym = 41     inv. 120 deg rotation - cart. axis [-1,-1,-1]

 cryst.   s(41) = (     0          0         -1      )    f =( -0.2500000 )
                  (    -1          0          0      )       ( -0.2500000 )
                  (     0         -1          0      )       ( -0.2500000 )

 cart.    s(41) = (  0.0000000 -1.0000000  0.0000000 )    f =( -0.3535534 )
                  (  0.0000000  0.0000000 -1.0000000 )       ( -0.3535534 )
                  ( -1.0000000  0.0000000  0.0000000 )       ( -0.3535534 )


      isym = 42     inv. 120 deg rotation - cart. axis [-1,1,1]  

 cryst.   s(42) = (    -1          1          0      )    f =( -0.2500000 )
                  (     0          1         -1      )       ( -0.2500000 )
                  (     0          1          0      )       ( -0.2500000 )

 cart.    s(42) = (  0.0000000  1.0000000  0.0000000 )    f =( -0.3535534 )
                  (  0.0000000  0.0000000 -1.0000000 )       ( -0.3535534 )
                  (  1.0000000  0.0000000  0.0000000 )       ( -0.3535534 )


      isym = 43     inv. 120 deg rotation - cart. axis [1,1,-1]  

 cryst.   s(43) = (     1         -1          0      )    f =( -0.2500000 )
                  (     1          0          0      )       ( -0.2500000 )
                  (     1          0         -1      )       ( -0.2500000 )

 cart.    s(43) = (  0.0000000 -1.0000000  0.0000000 )    f =( -0.3535534 )
                  (  0.0000000  0.0000000  1.0000000 )       ( -0.3535534 )
                  (  1.0000000  0.0000000  0.0000000 )       ( -0.3535534 )


      isym = 44     inv. 120 deg rotation - cart. axis [1,-1,1]  

 cryst.   s(44) = (     0          0          1      )    f =( -0.2500000 )
                  (     0         -1          1      )       ( -0.2500000 )
                  (    -1          0          1      )       ( -0.2500000 )

 cart.    s(44) = (  0.0000000  1.0000000  0.0000000 )    f =( -0.3535534 )
                  (  0.0000000  0.0000000  1.0000000 )       ( -0.3535534 )
                  ( -1.0000000  0.0000000  0.0000000 )       ( -0.3535534 )


      isym = 45     inv. 120 deg rotation - cart. axis [1,1,1]   

 cryst.   s(45) = (     0         -1          0      )    f =( -0.2500000 )
                  (     0          0         -1      )       ( -0.2500000 )
                  (    -1          0          0      )       ( -0.2500000 )

 cart.    s(45) = (  0.0000000  0.0000000 -1.0000000 )    f =( -0.3535534 )
                  ( -1.0000000  0.0000000  0.0000000 )       ( -0.3535534 )
                  (  0.0000000 -1.0000000  0.0000000 )       ( -0.3535534 )


      isym = 46     inv. 120 deg rotation - cart. axis [-1,1,-1] 

 cryst.   s(46) = (     1          0         -1      )    f =( -0.2500000 )
                  (     1         -1          0      )       ( -0.2500000 )
                  (     1          0          0      )       ( -0.2500000 )

 cart.    s(46) = (  0.0000000  0.0000000 -1.0000000 )    f =( -0.3535534 )
                  (  1.0000000  0.0000000  0.0000000 )       ( -0.3535534 )
                  (  0.0000000  1.0000000  0.0000000 )       ( -0.3535534 )


      isym = 47     inv. 120 deg rotation - cart. axis [1,-1,-1] 

 cryst.   s(47) = (    -1          0          1      )    f =( -0.2500000 )
                  (     0          0          1      )       ( -0.2500000 )
                  (     0         -1          1      )       ( -0.2500000 )

 cart.    s(47) = (  0.0000000  0.0000000  1.0000000 )    f =( -0.3535534 )
                  (  1.0000000  0.0000000  0.0000000 )       ( -0.3535534 )
                  (  0.0000000 -1.0000000  0.0000000 )       ( -0.3535534 )


      isym = 48     inv. 120 deg rotation - cart. axis [-1,-1,1] 

 cryst.   s(48) = (     0          1          0      )    f =( -0.2500000 )
                  (    -1          1          0      )       ( -0.2500000 )
                  (     0          1         -1      )       ( -0.2500000 )

 cart.    s(48) = (  0.0000000  0.0000000  1.0000000 )    f =( -0.3535534 )
                  ( -1.0000000  0.0000000  0.0000000 )       ( -0.3535534 )
                  (  0.0000000  1.0000000  0.0000000 )       ( -0.3535534 )


   Cartesian axes

     site n.     atom                  positions (alat units)
         1        Ge     tau(   1) = (   0.7071068   0.7071068   0.7071068  )
         2        Ge     tau(   2) = (   1.0606602   1.0606602   1.0606602  )

   Crystallographic axes

     site n.     atom                  positions (cryst. coord.)
         1        Ge     tau(   1) = (  0.5000000  0.5000000  0.5000000  )
         2        Ge     tau(   2) = (  0.7500000  0.7500000  0.7500000  )

     number of k points=    84  Marzari-Vanderbilt smearing, width (Ry)=  0.0200
                       cart. coord. in units 2pi/alat
        k(    1) = (   0.0000000   0.0000000   0.0000000), wk =   0.0009103
        k(    2) = (   0.0543928   0.0543928  -0.0543928), wk =   0.0072827
        k(    3) = (   0.1087857   0.1087857  -0.1087857), wk =   0.0072827
        k(    4) = (   0.1631785   0.1631785  -0.1631785), wk =   0.0072827
        k(    5) = (   0.2175713   0.2175713  -0.2175713), wk =   0.0072827
        k(    6) = (   0.2719641   0.2719641  -0.2719641), wk =   0.0072827
        k(    7) = (   0.3263570   0.3263570  -0.3263570), wk =   0.0072827
        k(    8) = (   0.1087857   0.0000000   0.0000000), wk =   0.0054620
        k(    9) = (   0.1631785   0.0543928  -0.0543928), wk =   0.0218480
        k(   10) = (   0.2175713   0.1087857  -0.1087857), wk =   0.0218480
        k(   11) = (   0.2719641   0.1631785  -0.1631785), wk =   0.0218480
        k(   12) = (   0.3263570   0.2175713  -0.2175713), wk =   0.0218480
        k(   13) = (   0.3807498   0.2719641  -0.2719641), wk =   0.0218480
        k(   14) = (  -0.2719641  -0.3807498   0.3807498), wk =   0.0218480
        k(   15) = (  -0.2175713  -0.3263570   0.3263570), wk =   0.0218480
        k(   16) = (  -0.1631785  -0.2719641   0.2719641), wk =   0.0218480
        k(   17) = (  -0.1087857  -0.2175713   0.2175713), wk =   0.0218480
        k(   18) = (  -0.0543928  -0.1631785   0.1631785), wk =   0.0218480
        k(   19) = (   0.0000000  -0.1087857   0.1087857), wk =   0.0109240
        k(   20) = (   0.2175713   0.0000000   0.0000000), wk =   0.0054620
        k(   21) = (   0.2719641   0.0543928  -0.0543928), wk =   0.0218480
        k(   22) = (   0.3263570   0.1087857  -0.1087857), wk =   0.0218480
        k(   23) = (   0.3807498   0.1631785  -0.1631785), wk =   0.0218480
        k(   24) = (   0.4351426   0.2175713  -0.2175713), wk =   0.0218480
        k(   25) = (  -0.2175713  -0.4351426   0.4351426), wk =   0.0218480
        k(   26) = (  -0.1631785  -0.3807498   0.3807498), wk =   0.0218480
        k(   27) = (  -0.1087857  -0.3263570   0.3263570), wk =   0.0218480
        k(   28) = (  -0.0543928  -0.2719641   0.2719641), wk =   0.0218480
        k(   29) = (   0.0000000  -0.2175713   0.2175713), wk =   0.0109240
        k(   30) = (   0.3263570   0.0000000   0.0000000), wk =   0.0054620
        k(   31) = (   0.3807498   0.0543928  -0.0543928), wk =   0.0218480
        k(   32) = (   0.4351426   0.1087857  -0.1087857), wk =   0.0218480
        k(   33) = (   0.4895355   0.1631785  -0.1631785), wk =   0.0218480
        k(   34) = (  -0.1631785  -0.4895355   0.4895355), wk =   0.0218480
        k(   35) = (  -0.1087857  -0.4351426   0.4351426), wk =   0.0218480
        k(   36) = (  -0.0543928  -0.3807498   0.3807498), wk =   0.0218480
        k(   37) = (   0.0000000  -0.3263570   0.3263570), wk =   0.0109240
        k(   38) = (   0.4351426   0.0000000   0.0000000), wk =   0.0054620
        k(   39) = (   0.4895355   0.0543928  -0.0543928), wk =   0.0218480
        k(   40) = (   0.5439283   0.1087857  -0.1087857), wk =   0.0218480
        k(   41) = (  -0.1087857  -0.5439283   0.5439283), wk =   0.0218480
        k(   42) = (  -0.0543928  -0.4895355   0.4895355), wk =   0.0218480
        k(   43) = (   0.0000000  -0.4351426   0.4351426), wk =   0.0109240
        k(   44) = (   0.5439283   0.0000000   0.0000000), wk =   0.0054620
        k(   45) = (   0.5983211   0.0543928  -0.0543928), wk =   0.0218480
        k(   46) = (  -0.0543928  -0.5983211   0.5983211), wk =   0.0218480
        k(   47) = (   0.0000000  -0.5439283   0.5439283), wk =   0.0109240
        k(   48) = (   0.6527140   0.0000000   0.0000000), wk =   0.0054620
        k(   49) = (   0.0000000  -0.6527140   0.6527140), wk =   0.0109240
        k(   50) = (   0.2175713   0.1087857   0.0000000), wk =   0.0218480
        k(   51) = (   0.2719641   0.1631785  -0.0543928), wk =   0.0436959
        k(   52) = (   0.3263570   0.2175713  -0.1087857), wk =   0.0436959
        k(   53) = (   0.3807498   0.2719641  -0.1631785), wk =   0.0436959
        k(   54) = (  -0.2719641  -0.3807498   0.4895355), wk =   0.0436959
        k(   55) = (   0.3263570   0.1087857   0.0000000), wk =   0.0218480
        k(   56) = (   0.3807498   0.1631785  -0.0543928), wk =   0.0436959
        k(   57) = (   0.4351426   0.2175713  -0.1087857), wk =   0.0436959
        k(   58) = (  -0.2175713  -0.4351426   0.5439283), wk =   0.0436959
        k(   59) = (  -0.1631785  -0.3807498   0.4895355), wk =   0.0436959
        k(   60) = (  -0.1087857  -0.3263570   0.4351426), wk =   0.0436959
        k(   61) = (  -0.0543928  -0.2719641   0.3807498), wk =   0.0436959
        k(   62) = (   0.0000000  -0.2175713   0.3263570), wk =   0.0218480
        k(   63) = (   0.4351426   0.1087857   0.0000000), wk =   0.0218480
        k(   64) = (   0.4895355   0.1631785  -0.0543928), wk =   0.0436959
        k(   65) = (  -0.1631785  -0.4895355   0.5983211), wk =   0.0436959
        k(   66) = (  -0.1087857  -0.4351426   0.5439283), wk =   0.0436959
        k(   67) = (  -0.0543928  -0.3807498   0.4895355), wk =   0.0436959
        k(   68) = (   0.0000000  -0.3263570   0.4351426), wk =   0.0218480
        k(   69) = (   0.5439283   0.1087857   0.0000000), wk =   0.0218480
        k(   70) = (  -0.1087857  -0.5439283   0.6527140), wk =   0.0436959
        k(   71) = (  -0.0543928  -0.4895355   0.5983211), wk =   0.0436959
        k(   72) = (   0.0000000  -0.4351426   0.5439283), wk =   0.0218480
        k(   73) = (  -0.0543928  -0.5983211   0.7071068), wk =   0.0218480
        k(   74) = (   0.0000000  -0.5439283   0.6527140), wk =   0.0218480
        k(   75) = (   0.4351426   0.2175713   0.0000000), wk =   0.0218480
        k(   76) = (  -0.2175713  -0.4351426   0.6527140), wk =   0.0436959
        k(   77) = (  -0.1631785  -0.3807498   0.5983211), wk =   0.0436959
        k(   78) = (  -0.1631785  -0.4895355   0.7071068), wk =   0.0218480
        k(   79) = (  -0.1087857  -0.4351426   0.6527140), wk =   0.0436959
        k(   80) = (  -0.0543928  -0.3807498   0.5983211), wk =   0.0436959
        k(   81) = (   0.0000000  -0.3263570   0.5439283), wk =   0.0218480
        k(   82) = (  -0.0543928  -0.4895355   0.7071068), wk =   0.0218480
        k(   83) = (   0.0000000  -0.4351426   0.6527140), wk =   0.0218480
        k(   84) = (  -0.0543928  -0.3807498   0.7071068), wk =   0.0218480

                       cryst. coord.
        k(    1) = (   0.0000000   0.0000000   0.0000000), wk =   0.0009103
        k(    2) = (   0.0000000   0.0000000   0.0769231), wk =   0.0072827
        k(    3) = (   0.0000000   0.0000000   0.1538462), wk =   0.0072827
        k(    4) = (   0.0000000   0.0000000   0.2307692), wk =   0.0072827
        k(    5) = (   0.0000000   0.0000000   0.3076923), wk =   0.0072827
        k(    6) = (   0.0000000   0.0000000   0.3846154), wk =   0.0072827
        k(    7) = (   0.0000000   0.0000000   0.4615385), wk =   0.0072827
        k(    8) = (   0.0000000   0.0769231   0.0769231), wk =   0.0054620
        k(    9) = (   0.0000000   0.0769231   0.1538462), wk =   0.0218480
        k(   10) = (   0.0000000   0.0769231   0.2307692), wk =   0.0218480
        k(   11) = (   0.0000000   0.0769231   0.3076923), wk =   0.0218480
        k(   12) = (   0.0000000   0.0769231   0.3846154), wk =   0.0218480
        k(   13) = (   0.0000000   0.0769231   0.4615385), wk =   0.0218480
        k(   14) = (   0.0000000   0.0769231  -0.4615385), wk =   0.0218480
        k(   15) = (   0.0000000   0.0769231  -0.3846154), wk =   0.0218480
        k(   16) = (   0.0000000   0.0769231  -0.3076923), wk =   0.0218480
        k(   17) = (   0.0000000   0.0769231  -0.2307692), wk =   0.0218480
        k(   18) = (   0.0000000   0.0769231  -0.1538462), wk =   0.0218480
        k(   19) = (   0.0000000   0.0769231  -0.0769231), wk =   0.0109240
        k(   20) = (   0.0000000   0.1538462   0.1538462), wk =   0.0054620
        k(   21) = (   0.0000000   0.1538462   0.2307692), wk =   0.0218480
        k(   22) = (   0.0000000   0.1538462   0.3076923), wk =   0.0218480
        k(   23) = (   0.0000000   0.1538462   0.3846154), wk =   0.0218480
        k(   24) = (   0.0000000   0.1538462   0.4615385), wk =   0.0218480
        k(   25) = (   0.0000000   0.1538462  -0.4615385), wk =   0.0218480
        k(   26) = (   0.0000000   0.1538462  -0.3846154), wk =   0.0218480
        k(   27) = (   0.0000000   0.1538462  -0.3076923), wk =   0.0218480
        k(   28) = (   0.0000000   0.1538462  -0.2307692), wk =   0.0218480
        k(   29) = (   0.0000000   0.1538462  -0.1538462), wk =   0.0109240
        k(   30) = (   0.0000000   0.2307692   0.2307692), wk =   0.0054620
        k(   31) = (   0.0000000   0.2307692   0.3076923), wk =   0.0218480
        k(   32) = (   0.0000000   0.2307692   0.3846154), wk =   0.0218480
        k(   33) = (   0.0000000   0.2307692   0.4615385), wk =   0.0218480
        k(   34) = (   0.0000000   0.2307692  -0.4615385), wk =   0.0218480
        k(   35) = (   0.0000000   0.2307692  -0.3846154), wk =   0.0218480
        k(   36) = (   0.0000000   0.2307692  -0.3076923), wk =   0.0218480
        k(   37) = (   0.0000000   0.2307692  -0.2307692), wk =   0.0109240
        k(   38) = (   0.0000000   0.3076923   0.3076923), wk =   0.0054620
        k(   39) = (   0.0000000   0.3076923   0.3846154), wk =   0.0218480
        k(   40) = (   0.0000000   0.3076923   0.4615385), wk =   0.0218480
        k(   41) = (   0.0000000   0.3076923  -0.4615385), wk =   0.0218480
        k(   42) = (   0.0000000   0.3076923  -0.3846154), wk =   0.0218480
        k(   43) = (   0.0000000   0.3076923  -0.3076923), wk =   0.0109240
        k(   44) = (   0.0000000   0.3846154   0.3846154), wk =   0.0054620
        k(   45) = (   0.0000000   0.3846154   0.4615385), wk =   0.0218480
        k(   46) = (   0.0000000   0.3846154  -0.4615385), wk =   0.0218480
        k(   47) = (   0.0000000   0.3846154  -0.3846154), wk =   0.0109240
        k(   48) = (   0.0000000   0.4615385   0.4615385), wk =   0.0054620
        k(   49) = (   0.0000000   0.4615385  -0.4615385), wk =   0.0109240
        k(   50) = (   0.0769231   0.1538462   0.2307692), wk =   0.0218480
        k(   51) = (   0.0769231   0.1538462   0.3076923), wk =   0.0436959
        k(   52) = (   0.0769231   0.1538462   0.3846154), wk =   0.0436959
        k(   53) = (   0.0769231   0.1538462   0.4615385), wk =   0.0436959
        k(   54) = (   0.0769231   0.1538462  -0.4615385), wk =   0.0436959
        k(   55) = (   0.0769231   0.2307692   0.3076923), wk =   0.0218480
        k(   56) = (   0.0769231   0.2307692   0.3846154), wk =   0.0436959
        k(   57) = (   0.0769231   0.2307692   0.4615385), wk =   0.0436959
        k(   58) = (   0.0769231   0.2307692  -0.4615385), wk =   0.0436959
        k(   59) = (   0.0769231   0.2307692  -0.3846154), wk =   0.0436959
        k(   60) = (   0.0769231   0.2307692  -0.3076923), wk =   0.0436959
        k(   61) = (   0.0769231   0.2307692  -0.2307692), wk =   0.0436959
        k(   62) = (   0.0769231   0.2307692  -0.1538462), wk =   0.0218480
        k(   63) = (   0.0769231   0.3076923   0.3846154), wk =   0.0218480
        k(   64) = (   0.0769231   0.3076923   0.4615385), wk =   0.0436959
        k(   65) = (   0.0769231   0.3076923  -0.4615385), wk =   0.0436959
        k(   66) = (   0.0769231   0.3076923  -0.3846154), wk =   0.0436959
        k(   67) = (   0.0769231   0.3076923  -0.3076923), wk =   0.0436959
        k(   68) = (   0.0769231   0.3076923  -0.2307692), wk =   0.0218480
        k(   69) = (   0.0769231   0.3846154   0.4615385), wk =   0.0218480
        k(   70) = (   0.0769231   0.3846154  -0.4615385), wk =   0.0436959
        k(   71) = (   0.0769231   0.3846154  -0.3846154), wk =   0.0436959
        k(   72) = (   0.0769231   0.3846154  -0.3076923), wk =   0.0218480
        k(   73) = (   0.0769231   0.4615385  -0.4615385), wk =   0.0218480
        k(   74) = (   0.0769231   0.4615385  -0.3846154), wk =   0.0218480
        k(   75) = (   0.1538462   0.3076923   0.4615385), wk =   0.0218480
        k(   76) = (   0.1538462   0.3076923  -0.4615385), wk =   0.0436959
        k(   77) = (   0.1538462   0.3076923  -0.3846154), wk =   0.0436959
        k(   78) = (   0.1538462   0.3846154  -0.4615385), wk =   0.0218480
        k(   79) = (   0.1538462   0.3846154  -0.3846154), wk =   0.0436959
        k(   80) = (   0.1538462   0.3846154  -0.3076923), wk =   0.0436959
        k(   81) = (   0.1538462   0.3846154  -0.2307692), wk =   0.0218480
        k(   82) = (   0.1538462   0.4615385  -0.3846154), wk =   0.0218480
        k(   83) = (   0.1538462   0.4615385  -0.3076923), wk =   0.0218480
        k(   84) = (   0.2307692   0.4615385  -0.3076923), wk =   0.0218480

     Dense  grid:    33079 G-vectors     FFT dimensions: (  48,  48,  48)

     Smooth grid:    11575 G-vectors     FFT dimensions: (  32,  32,  32)

     Dynamical RAM for                 wfc:       0.40 MB

     Dynamical RAM for     wfc (w. buffer):      33.99 MB

     Dynamical RAM for           str. fact:       0.50 MB

     Dynamical RAM for           local pot:       0.00 MB

     Dynamical RAM for          nlocal pot:       0.80 MB

     Dynamical RAM for                qrad:       1.52 MB

     Dynamical RAM for          rho,v,vnew:       4.05 MB

     Dynamical RAM for               rhoin:       1.35 MB

     Dynamical RAM for            rho*nmix:       8.08 MB

     Dynamical RAM for           G-vectors:       1.98 MB

     Dynamical RAM for          h,s,v(r/c):       0.06 MB

     Dynamical RAM for          <psi|beta>:       0.01 MB

     Dynamical RAM for                 psi:       0.80 MB

     Dynamical RAM for                hpsi:       0.80 MB

     Dynamical RAM for                spsi:       0.80 MB

     Dynamical RAM for      wfcinit/wfcrot:       0.81 MB

     Dynamical RAM for           addusdens:      94.89 MB

     Dynamical RAM for          addusforce:      96.16 MB

     Dynamical RAM for         addusstress:     101.45 MB

     Estimated static dynamical RAM per process >      49.42 MB

     Estimated max dynamical RAM per process >     158.95 MB

     Initial potential from superposition of free atoms

     starting charge      27.9984, renormalised to      28.0000
     Starting wfcs are   18 randomized atomic wfcs

     total cpu time spent up to now is        3.9 secs

     Self-consistent Calculation

     iteration #  1     ecut=    45.00 Ry     beta= 0.40
     Davidson diagonalization with overlap

---- Real-time Memory Report at c_bands before calling an iterative solver
           138 MiB given to the printing process from OS
             0 MiB allocation reported by mallinfo(arena+hblkhd)
           410 MiB available memory on the node where the printing process lives
------------------
     ethr =  1.00E-02,  avg # of iterations =  3.3

     Threshold (ethr) on eigenvalues was too large:
     Diagonalizing with lowered threshold

     Davidson diagonalization with overlap

---- Real-time Memory Report at c_bands before calling an iterative solver
           176 MiB given to the printing process from OS
             0 MiB allocation reported by mallinfo(arena+hblkhd)
           486 MiB available memory on the node where the printing process lives
------------------
     ethr =  1.27E-04,  avg # of iterations =  2.5

     total cpu time spent up to now is       22.6 secs

     total energy              =    -426.37885666 Ry
     estimated scf accuracy    <       0.03669770 Ry

     iteration #  2     ecut=    45.00 Ry     beta= 0.40
     Davidson diagonalization with overlap

---- Real-time Memory Report at c_bands before calling an iterative solver
           177 MiB given to the printing process from OS
             0 MiB allocation reported by mallinfo(arena+hblkhd)
           412 MiB available memory on the node where the printing process lives
------------------
     ethr =  1.31E-04,  avg # of iterations =  1.0

     total cpu time spent up to now is       30.5 secs

     total energy              =    -426.37630109 Ry
     estimated scf accuracy    <       0.01049522 Ry

     iteration #  3     ecut=    45.00 Ry     beta= 0.40
     Davidson diagonalization with overlap

---- Real-time Memory Report at c_bands before calling an iterative solver
           177 MiB given to the printing process from OS
             0 MiB allocation reported by mallinfo(arena+hblkhd)
           408 MiB available memory on the node where the printing process lives
------------------
     ethr =  3.75E-05,  avg # of iterations =  2.0

     total cpu time spent up to now is       38.8 secs

     total energy              =    -426.37684373 Ry
     estimated scf accuracy    <       0.00009951 Ry

     iteration #  4     ecut=    45.00 Ry     beta= 0.40
     Davidson diagonalization with overlap

---- Real-time Memory Report at c_bands before calling an iterative solver
           178 MiB given to the printing process from OS
             0 MiB allocation reported by mallinfo(arena+hblkhd)
           389 MiB available memory on the node where the printing process lives
------------------
     ethr =  3.55E-07,  avg # of iterations =  3.2

     total cpu time spent up to now is       50.0 secs

     total energy              =    -426.37686321 Ry
     estimated scf accuracy    <       0.00000430 Ry

     iteration #  5     ecut=    45.00 Ry     beta= 0.40
     Davidson diagonalization with overlap

---- Real-time Memory Report at c_bands before calling an iterative solver
           178 MiB given to the printing process from OS
             0 MiB allocation reported by mallinfo(arena+hblkhd)
           412 MiB available memory on the node where the printing process lives
------------------
     ethr =  1.54E-08,  avg # of iterations =  2.0

     total cpu time spent up to now is       59.8 secs

     total energy              =    -426.37686404 Ry
     estimated scf accuracy    <       0.00000040 Ry

     iteration #  6     ecut=    45.00 Ry     beta= 0.40
     Davidson diagonalization with overlap

---- Real-time Memory Report at c_bands before calling an iterative solver
           178 MiB given to the printing process from OS
             0 MiB allocation reported by mallinfo(arena+hblkhd)
           451 MiB available memory on the node where the printing process lives
------------------
     ethr =  1.43E-09,  avg # of iterations =  2.0

     total cpu time spent up to now is       70.5 secs

     total energy              =    -426.37686411 Ry
     estimated scf accuracy    <       0.00000009 Ry

     iteration #  7     ecut=    45.00 Ry     beta= 0.40
     Davidson diagonalization with overlap

---- Real-time Memory Report at c_bands before calling an iterative solver
           179 MiB given to the printing process from OS
             0 MiB allocation reported by mallinfo(arena+hblkhd)
           415 MiB available memory on the node where the printing process lives
------------------
     ethr =  3.06E-10,  avg # of iterations =  2.0

     total cpu time spent up to now is       80.7 secs

     total energy              =    -426.37686414 Ry
     estimated scf accuracy    <       0.00000002 Ry

     iteration #  8     ecut=    45.00 Ry     beta= 0.40
     Davidson diagonalization with overlap

---- Real-time Memory Report at c_bands before calling an iterative solver
           179 MiB given to the printing process from OS
             0 MiB allocation reported by mallinfo(arena+hblkhd)
           405 MiB available memory on the node where the printing process lives
------------------
     ethr =  8.91E-11,  avg # of iterations =  2.0

     total cpu time spent up to now is       90.1 secs

     End of self-consistent calculation

          k = 0.0000 0.0000 0.0000 (  1459 PWs)   bands (ev):

   -15.6663 -15.6663 -15.6663 -15.6243 -15.6243 -15.3738 -15.3738 -15.3738
   -15.3532 -15.3532  -4.0790   9.2496   9.2496   9.2496   9.8601  11.8036
    11.8036  11.8036

     occupation numbers 
     1.0000   1.0000   1.0000   1.0000   1.0000   1.0000   1.0000   1.0000
     1.0000   1.0000   1.0000   0.5416   0.5416   0.5416   0.0003   0.0000
     0.0000   0.0000

          k = 0.0544 0.0544-0.0544 (  1447 PWs)   bands (ev):

   -15.6708 -15.6708 -15.6651 -15.6181 -15.6181 -15.3799 -15.3799 -15.3752
   -15.3479 -15.3479  -4.0017   7.9596   9.0894   9.0894  10.5387  12.0146
    12.0146  12.2104

     occupation numbers 
     1.0000   1.0000   1.0000   1.0000   1.0000   1.0000   1.0000   1.0000
     1.0000   1.0000   1.0000   1.0000   0.9400   0.9400   0.0000   0.0000
     0.0000   0.0000

          k = 0.1088 0.1088-0.1088 (  1432 PWs)   bands (ev):

   -15.6792 -15.6792 -15.6619 -15.6054 -15.6054 -15.3904 -15.3904 -15.3790
   -15.3396 -15.3396  -3.7720   6.3384   8.7407   8.7407  10.4777  12.4705
    12.4705  13.4382

     occupation numbers 
     1.0000   1.0000   1.0000   1.0000   1.0000   1.0000   1.0000   1.0000
     1.0000   1.0000   1.0000   1.0000   1.0357   1.0357   0.0000   0.0000
     0.0000   0.0000

          k = 0.1632 0.1632-0.1632 (  1453 PWs)   bands (ev):

   -15.6865 -15.6865 -15.6575 -15.5926 -15.5926 -15.4000 -15.4000 -15.3846
   -15.3326 -15.3326  -3.3978   4.7778   8.3742   8.3742  10.1740  12.8737
    12.8737  14.8603

     occupation numbers 
     1.0000   1.0000   1.0000   1.0000   1.0000   1.0000   1.0000   1.0000
     1.0000   1.0000   1.0000   1.0000   1.0002   1.0002   0.0000   0.0000
     0.0000   0.0000

          k = 0.2176 0.2176-0.2176 (  1441 PWs)   bands (ev):

   -15.6913 -15.6913 -15.6527 -15.5829 -15.5829 -15.4066 -15.4066 -15.3904
   -15.3278 -15.3278  -2.9000   3.3603   8.0691   8.0691   9.8941  13.0450
    13.0450  16.2157

     occupation numbers 
     1.0000   1.0000   1.0000   1.0000   1.0000   1.0000   1.0000   1.0000
     1.0000   1.0000   1.0000   1.0000   1.0000   1.0000   0.0001   0.0000
     0.0000   0.0000

          k = 0.2720 0.2720-0.2720 (  1459 PWs)   bands (ev):

   -15.6939 -15.6939 -15.6487 -15.5771 -15.5771 -15.4100 -15.4100 -15.3953
   -15.3251 -15.3251  -2.3366   2.1722   7.8563   7.8563   9.6959  13.0355
    13.0355  16.4131

     occupation numbers 
     1.0000   1.0000   1.0000   1.0000   1.0000   1.0000   1.0000   1.0000
     1.0000   1.0000   1.0000   1.0000   1.0000   1.0000   0.0051   0.0000
     0.0000   0.0000

          k = 0.3264 0.3264-0.3264 (  1467 PWs)   bands (ev):

   -15.6948 -15.6948 -15.6464 -15.5748 -15.5748 -15.4111 -15.4111 -15.3982
   -15.3239 -15.3239  -1.8819   1.4019   7.7479   7.7479   9.5948  12.9898
    12.9898  16.2613

     occupation numbers 
     1.0000   1.0000   1.0000   1.0000   1.0000   1.0000   1.0000   1.0000
     1.0000   1.0000   1.0000   1.0000   1.0000   1.0000   0.0227   0.0000
     0.0000   0.0000

          k = 0.1088 0.0000 0.0000 (  1447 PWs)   bands (ev):

   -15.6717 -15.6689 -15.6689 -15.6202 -15.6117 -15.3935 -15.3696 -15.3696
   -15.3570 -15.3425  -3.9758   7.9582   8.7916   8.7916  11.1034  11.4784
    12.3902  12.3902

     occupation numbers 
     1.0000   1.0000   1.0000   1.0000   1.0000   1.0000   1.0000   1.0000
     1.0000   1.0000   1.0000   1.0000   1.0524   1.0524   0.0000   0.0000
     0.0000   0.0000

          k = 0.1632 0.0544-0.0544 (  1440 PWs)   bands (ev):

   -15.6802 -15.6743 -15.6665 -15.6117 -15.5983 -15.4080 -15.3754 -15.3688
   -15.3516 -15.3357  -3.7965   6.7180   8.3934   8.5066  11.2659  11.6067
    12.9404  13.2918

     occupation numbers 
     1.0000   1.0000   1.0000   1.0000   1.0000   1.0000   1.0000   1.0000
     1.0000   1.0000   1.0000   1.0000   1.0003   1.0021   0.0000   0.0000
     0.0000   0.0000

          k = 0.2176 0.1088-0.1088 (  1447 PWs)   bands (ev):

   -15.6893 -15.6815 -15.6607 -15.5997 -15.5843 -15.4200 -15.3862 -15.3738
   -15.3425 -15.3282  -3.4692   5.2278   8.0273   8.1262  10.9961  12.1031
    13.4096  14.3375

     occupation numbers 
     1.0000   1.0000   1.0000   1.0000   1.0000   1.0000   1.0000   1.0000
     1.0000   1.0000   1.0000   1.0000   1.0000   1.0000   0.0000   0.0000
     0.0000   0.0000

          k = 0.2720 0.1632-0.1632 (  1450 PWs)   bands (ev):

   -15.6963 -15.6875 -15.6532 -15.5885 -15.5735 -15.4276 -15.3959 -15.3819
   -15.3349 -15.3219  -3.0092   3.7988   7.7270   7.7515  10.6957  12.5280
    13.6029  15.1624

     occupation numbers 
     1.0000   1.0000   1.0000   1.0000   1.0000   1.0000   1.0000   1.0000
     1.0000   1.0000   1.0000   1.0000   1.0000   1.0000   0.0000   0.0000
     0.0000   0.0000

          k = 0.3264 0.2176-0.2176 (  1451 PWs)   bands (ev):

   -15.7006 -15.6918 -15.6458 -15.5796 -15.5680 -15.4292 -15.4040 -15.3911
   -15.3288 -15.3177  -2.4566   2.5428   7.3889   7.5893  10.4545  12.7003
    13.5373  16.0217

     occupation numbers 
     1.0000   1.0000   1.0000   1.0000   1.0000   1.0000   1.0000   1.0000
     1.0000   1.0000   1.0000   1.0000   1.0000   1.0000   0.0000   0.0000
     0.0000   0.0000

          k = 0.3807 0.2720-0.2720 (  1460 PWs)   bands (ev):

   -15.7023 -15.6948 -15.6400 -15.5731 -15.5680 -15.4247 -15.4109 -15.3994
   -15.3242 -15.3162  -1.9323   1.6094   7.1438   7.5481  10.3029  12.7604
    13.3745  16.5382

     occupation numbers 
     1.0000   1.0000   1.0000   1.0000   1.0000   1.0000   1.0000   1.0000
     1.0000   1.0000   1.0000   1.0000   1.0000   1.0000   0.0000   0.0000
     0.0000   0.0000

          k =-0.2720-0.3807 0.3807 (  1456 PWs)   bands (ev):

   -15.7017 -15.6969 -15.6375 -15.5715 -15.5687 -15.4169 -15.4160 -15.4051
   -15.3210 -15.3174  -1.7469   1.3214   7.0075   7.6264  10.2512  12.8505
    13.2287  16.6331

     occupation numbers 
     1.0000   1.0000   1.0000   1.0000   1.0000   1.0000   1.0000   1.0000
     1.0000   1.0000   1.0000   1.0000   1.0000   1.0000   0.0000   0.0000
     0.0000   0.0000

          k =-0.2176-0.3264 0.3264 (  1455 PWs)   bands (ev):

   -15.6991 -15.6979 -15.6394 -15.5768 -15.5671 -15.4210 -15.4096 -15.4027
   -15.3213 -15.3194  -2.0906   1.8718   6.9904   7.8166  10.3014  13.0073
    13.1277  16.6345

     occupation numbers 
     1.0000   1.0000   1.0000   1.0000   1.0000   1.0000   1.0000   1.0000
     1.0000   1.0000   1.0000   1.0000   1.0000   1.0000   0.0000   0.0000
     0.0000   0.0000

          k =-0.1632-0.2720 0.2720 (  1445 PWs)   bands (ev):

   -15.6971 -15.6945 -15.6451 -15.5835 -15.5700 -15.4213 -15.4085 -15.3903
   -15.3277 -15.3199  -2.6476   2.9382   7.1003   8.1038  10.4494  13.0187
    13.1720  16.0957

     occupation numbers 
     1.0000   1.0000   1.0000   1.0000   1.0000   1.0000   1.0000   1.0000
     1.0000   1.0000   1.0000   1.0000   1.0000   1.0000   0.0000   0.0000
     0.0000   0.0000

          k =-0.1088-0.2176 0.2176 (  1448 PWs)   bands (ev):

   -15.6938 -15.6879 -15.6527 -15.5921 -15.5786 -15.4162 -15.4042 -15.3777
   -15.3366 -15.3231  -3.1766   4.2601   7.3442   8.4615  10.6795  12.7851
    13.1436  15.0783

     occupation numbers 
     1.0000   1.0000   1.0000   1.0000   1.0000   1.0000   1.0000   1.0000
     1.0000   1.0000   1.0000   1.0000   1.0000   1.0010   0.0000   0.0000
     0.0000   0.0000

          k =-0.0544-0.1632 0.1632 (  1444 PWs)   bands (ev):

   -15.6875 -15.6796 -15.6603 -15.6027 -15.5917 -15.4062 -15.3967 -15.3670
   -15.3470 -15.3290  -3.5948   5.7038   7.7357   8.8345  10.9334  12.3888
    12.6820  14.1562

     occupation numbers 
     1.0000   1.0000   1.0000   1.0000   1.0000   1.0000   1.0000   1.0000
     1.0000   1.0000   1.0000   1.0000   1.0000   1.0669   0.0000   0.0000
     0.0000   0.0000

          k = 0.0000-0.1088 0.1088 (  1446 PWs)   bands (ev):

   -15.6790 -15.6717 -15.6654 -15.6133 -15.6064 -15.3934 -15.3870 -15.3653
   -15.3527 -15.3376  -3.8735   7.0766   8.3365   9.1025  10.9505  12.0322
    12.1424  13.1410

     occupation numbers 
     1.0000   1.0000   1.0000   1.0000   1.0000   1.0000   1.0000   1.0000
     1.0000   1.0000   1.0000   1.0000   1.0001   0.9148   0.0000   0.0000
     0.0000   0.0000

          k = 0.2176 0.0000 0.0000 (  1447 PWs)   bands (ev):

   -15.6777 -15.6759 -15.6759 -15.6080 -15.5842 -15.4275 -15.3680 -15.3583
   -15.3583 -15.3348  -3.6675   6.4234   7.9719   7.9719  10.8421  12.2544
    13.5888  13.5888

     occupation numbers 
     1.0000   1.0000   1.0000   1.0000   1.0000   1.0000   1.0000   1.0000
     1.0000   1.0000   1.0000   1.0000   1.0000   1.0000   0.0000   0.0000
     0.0000   0.0000

          k = 0.2720 0.0544-0.0544 (  1457 PWs)   bands (ev):

   -15.6882 -15.6814 -15.6692 -15.5978 -15.5685 -15.4446 -15.3798 -15.3581
   -15.3478 -15.3298  -3.3885   5.3792   7.5472   7.5951  10.8470  12.3039
    14.1530  14.1841

     occupation numbers 
     1.0000   1.0000   1.0000   1.0000   1.0000   1.0000   1.0000   1.0000
     1.0000   1.0000   1.0000   1.0000   1.0000   1.0000   0.0000   0.0000
     0.0000   0.0000

          k = 0.3264 0.1088-0.1088 (  1449 PWs)   bands (ev):

   -15.6988 -15.6874 -15.6579 -15.5857 -15.5553 -15.4566 -15.3925 -15.3684
   -15.3376 -15.3203  -2.9704   4.1156   7.0477   7.3186  11.0575  12.4475
    14.1807  14.4977

     occupation numbers 
     1.0000   1.0000   1.0000   1.0000   1.0000   1.0000   1.0000   1.0000
     1.0000   1.0000   1.0000   1.0000   1.0000   1.0000   0.0000   0.0000
     0.0000   0.0000

          k = 0.3807 0.1632-0.1632 (  1447 PWs)   bands (ev):

   -15.7070 -15.6925 -15.6449 -15.5744 -15.5482 -15.4609 -15.4048 -15.3826
   -15.3290 -15.3116  -2.4412   2.8936   6.5778   7.1667  11.0195  12.8402
    14.4584  14.4690

     occupation numbers 
     1.0000   1.0000   1.0000   1.0000   1.0000   1.0000   1.0000   1.0000
     1.0000   1.0000   1.0000   1.0000   1.0000   1.0000   0.0000   0.0000
     0.0000   0.0000

          k = 0.4351 0.2176-0.2176 (  1453 PWs)   bands (ev):

   -15.7122 -15.6967 -15.6327 -15.5645 -15.5491 -15.4564 -15.4164 -15.3966
   -15.3220 -15.3059  -1.8825   1.8797   6.2022   7.1479  10.9267  12.9686
    14.2567  15.4346

     occupation numbers 
     1.0000   1.0000   1.0000   1.0000   1.0000   1.0000   1.0000   1.0000
     1.0000   1.0000   1.0000   1.0000   1.0000   1.0000   0.0000   0.0000
     0.0000   0.0000

          k =-0.2176-0.4351 0.4351 (  1466 PWs)   bands (ev):

   -15.7139 -15.7001 -15.6242 -15.5565 -15.5564 -15.4446 -15.4271 -15.4073
   -15.3168 -15.3044  -1.5388   1.3531   5.9487   7.2612  10.9073  13.0068
    14.0117  16.6655

     occupation numbers 
     1.0000   1.0000   1.0000   1.0000   1.0000   1.0000   1.0000   1.0000
     1.0000   1.0000   1.0000   1.0000   1.0000   1.0000   0.0000   0.0000
     0.0000   0.0000

          k =-0.1632-0.3807 0.3807 (  1465 PWs)   bands (ev):

   -15.7119 -15.7023 -15.6219 -15.5673 -15.5515 -15.4352 -15.4283 -15.4126
   -15.3138 -15.3075  -1.7334   1.6469   5.8363   7.4970  10.9832  13.1150
    13.7863  16.9777

     occupation numbers 
     1.0000   1.0000   1.0000   1.0000   1.0000   1.0000   1.0000   1.0000
     1.0000   1.0000   1.0000   1.0000   1.0000   1.0000   0.0000   0.0000
     0.0000   0.0000

          k =-0.1088-0.3264 0.3264 (  1453 PWs)   bands (ev):

   -15.7064 -15.7026 -15.6272 -15.5778 -15.5526 -15.4376 -15.4176 -15.4045
   -15.3153 -15.3132  -2.2622   2.5451   5.8876   7.8346  11.1392  13.3007
    13.5424  15.8391

     occupation numbers 
     1.0000   1.0000   1.0000   1.0000   1.0000   1.0000   1.0000   1.0000
     1.0000   1.0000   1.0000   1.0000   1.0000   1.0000   0.0000   0.0000
     0.0000   0.0000

          k =-0.0544-0.2720 0.2720 (  1444 PWs)   bands (ev):

   -15.7004 -15.6979 -15.6387 -15.5867 -15.5613 -15.4324 -15.4135 -15.3853
   -15.3273 -15.3155  -2.8132   3.6871   6.1471   8.2343  11.3263  13.1813
    13.3756  14.7966

     occupation numbers 
     1.0000   1.0000   1.0000   1.0000   1.0000   1.0000   1.0000   1.0000
     1.0000   1.0000   1.0000   1.0000   1.0000   1.0000   0.0000   0.0000
     0.0000   0.0000

          k = 0.0000-0.2176 0.2176 (  1454 PWs)   bands (ev):

   -15.6952 -15.6877 -15.6515 -15.5951 -15.5757 -15.4210 -15.4065 -15.3683
   -15.3420 -15.3209  -3.2703   4.8196   6.7248   8.6168  11.3767  12.7129
    12.9399  14.4910

     occupation numbers 
     1.0000   1.0000   1.0000   1.0000   1.0000   1.0000   1.0000   1.0000
     1.0000   1.0000   1.0000   1.0000   1.0000   1.0097   0.0000   0.0000
     0.0000   0.0000

          k = 0.3264 0.0000 0.0000 (  1459 PWs)   bands (ev):

   -15.6851 -15.6851 -15.6770 -15.5887 -15.5500 -15.4672 -15.3859 -15.3431
   -15.3431 -15.3372  -3.1575   4.9111   7.2011   7.2011  10.2503  12.2531
    14.9731  14.9731

     occupation numbers 
     1.0000   1.0000   1.0000   1.0000   1.0000   1.0000   1.0000   1.0000
     1.0000   1.0000   1.0000   1.0000   1.0000   1.0000   0.0000   0.0000
     0.0000   0.0000

          k = 0.3807 0.0544-0.0544 (  1445 PWs)   bands (ev):

   -15.6958 -15.6902 -15.6659 -15.5764 -15.5333 -15.4850 -15.3981 -15.3541
   -15.3341 -15.3252  -2.7834   4.0161   6.7209   6.9062  10.3244  12.0219
    15.0897  15.5198

     occupation numbers 
     1.0000   1.0000   1.0000   1.0000   1.0000   1.0000   1.0000   1.0000
     1.0000   1.0000   1.0000   1.0000   1.0000   1.0000   0.0000   0.0000
     0.0000   0.0000

          k = 0.4351 0.1088-0.1088 (  1446 PWs)   bands (ev):

   -15.7075 -15.6951 -15.6489 -15.5634 -15.5225 -15.4948 -15.4120 -15.3730
   -15.3255 -15.3114  -2.2857   2.9980   6.1004   6.7387  10.5855  12.3487
    14.7992  15.6437

     occupation numbers 
     1.0000   1.0000   1.0000   1.0000   1.0000   1.0000   1.0000   1.0000
     1.0000   1.0000   1.0000   1.0000   1.0000   1.0000   0.0000   0.0000
     0.0000   0.0000

          k = 0.4895 0.1632-0.1632 (  1462 PWs)   bands (ev):

   -15.7167 -15.6995 -15.6313 -15.5510 -15.5218 -15.4929 -15.4263 -15.3924
   -15.3182 -15.3010  -1.7188   2.0405   5.5442   6.7101  10.6513  13.3540
    14.5689  15.4568

     occupation numbers 
     1.0000   1.0000   1.0000   1.0000   1.0000   1.0000   1.0000   1.0000
     1.0000   1.0000   1.0000   1.0000   1.0000   1.0000   0.0000   0.0000
     0.0000   0.0000

          k =-0.1632-0.4895 0.4895 (  1459 PWs)   bands (ev):

   -15.7220 -15.7031 -15.6173 -15.5401 -15.5293 -15.4823 -15.4401 -15.4074
   -15.3127 -15.2952  -1.2589   1.3824   5.1384   6.8212  10.7205  14.1300
    15.0409  15.1575

     occupation numbers 
     1.0000   1.0000   1.0000   1.0000   1.0000   1.0000   1.0000   1.0000
     1.0000   1.0000   1.0000   1.0000   1.0000   1.0000   0.0000   0.0000
     0.0000   0.0000

          k =-0.1088-0.4351 0.4351 (  1464 PWs)   bands (ev):

   -15.7226 -15.7056 -15.6100 -15.5444 -15.5328 -15.4640 -15.4508 -15.4150
   -15.3094 -15.2951  -1.2858   1.4250   4.9223   7.0635  10.8880  14.1469
    14.8261  16.5067

     occupation numbers 
     1.0000   1.0000   1.0000   1.0000   1.0000   1.0000   1.0000   1.0000
     1.0000   1.0000   1.0000   1.0000   1.0000   1.0000   0.0000   0.0000
     0.0000   0.0000

          k =-0.0544-0.3807 0.3807 (  1463 PWs)   bands (ev):

   -15.7182 -15.7063 -15.6110 -15.5632 -15.5338 -15.4535 -15.4408 -15.4151
   -15.3086 -15.3011  -1.7651   2.1083   4.9464   7.4157  11.1434  14.2093
    14.4153  15.6823

     occupation numbers 
     1.0000   1.0000   1.0000   1.0000   1.0000   1.0000   1.0000   1.0000
     1.0000   1.0000   1.0000   1.0000   1.0000   1.0000   0.0000   0.0000
     0.0000   0.0000

          k = 0.0000-0.3264 0.3264 (  1452 PWs)   bands (ev):

   -15.7094 -15.7047 -15.6218 -15.5779 -15.5447 -15.4462 -15.4228 -15.4042
   -15.3126 -15.3107  -2.3263   2.9610   5.3146   7.8348  11.3906  13.8292
    14.1662  14.5737

     occupation numbers 
     1.0000   1.0000   1.0000   1.0000   1.0000   1.0000   1.0000   1.0000
     1.0000   1.0000   1.0000   1.0000   1.0000   1.0000   0.0000   0.0000
     0.0000   0.0000

          k = 0.4351 0.0000 0.0000 (  1447 PWs)   bands (ev):

   -15.6942 -15.6942 -15.6678 -15.5634 -15.5122 -15.5093 -15.4094 -15.3496
   -15.3274 -15.3274  -2.4525   3.4381   6.5852   6.5852   9.8331  11.4182
    16.4201  16.4201

     occupation numbers 
     1.0000   1.0000   1.0000   1.0000   1.0000   1.0000   1.0000   1.0000
     1.0000   1.0000   1.0000   1.0000   1.0000   1.0000   0.0004   0.0000
     0.0000   0.0000

          k = 0.4895 0.0544-0.0544 (  1455 PWs)   bands (ev):

   -15.7031 -15.6983 -15.6535 -15.5492 -15.5266 -15.4955 -15.4236 -15.3665
   -15.3202 -15.3153  -1.9906   2.6547   6.1133   6.3898   9.9853  11.2220
    16.4719  16.8780

     occupation numbers 
     1.0000   1.0000   1.0000   1.0000   1.0000   1.0000   1.0000   1.0000
     1.0000   1.0000   1.0000   1.0000   1.0000   1.0000   0.0000   0.0000
     0.0000   0.0000

          k = 0.5439 0.1088-0.1088 (  1462 PWs)   bands (ev):

   -15.7145 -15.7020 -15.6326 -15.5350 -15.5342 -15.4864 -15.4390 -15.3892
   -15.3140 -15.3022  -1.4331   1.8532   5.4326   6.3348  10.2149  11.8260
    16.1677  16.8289

     occupation numbers 
     1.0000   1.0000   1.0000   1.0000   1.0000   1.0000   1.0000   1.0000
     1.0000   1.0000   1.0000   1.0000   1.0000   1.0000   0.0000   0.0000
     0.0000   0.0000

          k =-0.1088-0.5439 0.5439 (  1462 PWs)   bands (ev):

   -15.7233 -15.7050 -15.6145 -15.5281 -15.5219 -15.4897 -15.4546 -15.4083
   -15.3094 -15.2927  -0.8999   1.1976   4.8386   6.4235  10.3271  13.1051
    15.8936  16.5122

     occupation numbers 
     1.0000   1.0000   1.0000   1.0000   1.0000   1.0000   1.0000   1.0000
     1.0000   1.0000   1.0000   1.0000   1.0000   1.0000   0.0000   0.0000
     0.0000   0.0000

          k =-0.0544-0.4895 0.4895 (  1458 PWs)   bands (ev):

   -15.7274 -15.7071 -15.6053 -15.5135 -15.5133 -15.5015 -15.4665 -15.4172
   -15.3068 -15.2888  -0.7788   1.0707   4.4818   6.6494  10.5215  14.6840
    15.7125  16.0458

     occupation numbers 
     1.0000   1.0000   1.0000   1.0000   1.0000   1.0000   1.0000   1.0000
     1.0000   1.0000   1.0000   1.0000   1.0000   1.0000   0.0000   0.0000
     0.0000   0.0000

          k = 0.0000-0.4351 0.4351 (  1466 PWs)   bands (ev):

   -15.7257 -15.7078 -15.6043 -15.5380 -15.5178 -15.4733 -15.4658 -15.4182
   -15.3065 -15.2916  -1.2098   1.5526   4.4767   6.9935  10.8225  15.3453
    15.4746  15.7505

     occupation numbers 
     1.0000   1.0000   1.0000   1.0000   1.0000   1.0000   1.0000   1.0000
     1.0000   1.0000   1.0000   1.0000   1.0000   1.0000   0.0000   0.0000
     0.0000   0.0000

          k = 0.5439 0.0000 0.0000 (  1455 PWs)   bands (ev):

   -15.7014 -15.7014 -15.6498 -15.5511 -15.5338 -15.4732 -15.4377 -15.3713
   -15.3149 -15.3149  -1.5631   2.0249   6.1612   6.1612   9.6392  10.5977
    17.8603  17.8603

     occupation numbers 
     1.0000   1.0000   1.0000   1.0000   1.0000   1.0000   1.0000   1.0000
     1.0000   1.0000   1.0000   1.0000   1.0000   1.0000   0.0121   0.0000
     0.0000   0.0000

          k = 0.5983 0.0544-0.0544 (  1455 PWs)   bands (ev):

   -15.7083 -15.7039 -15.6321 -15.5663 -15.5183 -15.4577 -15.4534 -15.3902
   -15.3104 -15.3066  -1.0250   1.3333   5.7454   6.0721   9.8545  10.5836
    17.9084  18.1825

     occupation numbers 
     1.0000   1.0000   1.0000   1.0000   1.0000   1.0000   1.0000   1.0000
     1.0000   1.0000   1.0000   1.0000   1.0000   1.0000   0.0003   0.0000
     0.0000   0.0000

          k =-0.0544-0.5983 0.5983 (  1459 PWs)   bands (ev):

   -15.7183 -15.7059 -15.6116 -15.5663 -15.5036 -15.4698 -15.4553 -15.4116
   -15.3074 -15.2965  -0.4531   0.7187   5.0954   6.1284  10.0206  11.5228
    17.5811  17.8981

     occupation numbers 
     1.0000   1.0000   1.0000   1.0000   1.0000   1.0000   1.0000   1.0000
     1.0000   1.0000   1.0000   1.0000   1.0000   1.0000   0.0000   0.0000
     0.0000   0.0000

          k = 0.0000-0.5439 0.5439 (  1472 PWs)   bands (ev):

   -15.7257 -15.7071 -15.6045 -15.5418 -15.4977 -15.4786 -15.4769 -15.4185
   -15.3062 -15.2896  -0.3129   0.6107   4.5904   6.3261  10.2104  12.9912
    17.0567  17.1716

     occupation numbers 
     1.0000   1.0000   1.0000   1.0000   1.0000   1.0000   1.0000   1.0000
     1.0000   1.0000   1.0000   1.0000   1.0000   1.0000   0.0000   0.0000
     0.0000   0.0000

          k = 0.6527 0.0000 0.0000 (  1460 PWs)   bands (ev):

   -15.7052 -15.7052 -15.6234 -15.5899 -15.5017 -15.4690 -15.4352 -15.4005
   -15.3080 -15.3080  -0.5050   0.7002   5.9458   5.9458   9.6933  10.0111
    19.0694  19.0694

     occupation numbers 
     1.0000   1.0000   1.0000   1.0000   1.0000   1.0000   1.0000   1.0000
     1.0000   1.0000   1.0000   1.0000   1.0000   1.0000   0.0053   0.0000
     0.0000   0.0000

          k = 0.0000-0.6527 0.6527 (  1456 PWs)   bands (ev):

   -15.7101 -15.7059 -15.6070 -15.5977 -15.4867 -15.4846 -15.4259 -15.4174
   -15.3069 -15.3033   0.0473   0.1397   5.6224   5.9650   9.8633  10.3110
    18.8398  18.9335

     occupation numbers 
     1.0000   1.0000   1.0000   1.0000   1.0000   1.0000   1.0000   1.0000
     1.0000   1.0000   1.0000   1.0000   1.0000   1.0000   0.0002   0.0000
     0.0000   0.0000

          k = 0.2176 0.1088 0.0000 (  1444 PWs)   bands (ev):

   -15.6874 -15.6792 -15.6641 -15.6036 -15.5838 -15.4239 -15.3839 -15.3586
   -15.3538 -15.3290  -3.5677   5.8259   7.5238   8.4210  11.4741  11.7313
    13.3518  14.0296

     occupation numbers 
     1.0000   1.0000   1.0000   1.0000   1.0000   1.0000   1.0000   1.0000
     1.0000   1.0000   1.0000   1.0000   1.0000   1.0005   0.0000   0.0000
     0.0000   0.0000

          k = 0.2720 0.1632-0.0544 (  1450 PWs)   bands (ev):

   -15.6954 -15.6874 -15.6549 -15.5929 -15.5693 -15.4366 -15.3941 -15.3703
   -15.3401 -15.3217  -3.1948   4.6005   6.9123   8.1396  11.4675  12.1125
    13.8318  14.3337

     occupation numbers 
     1.0000   1.0000   1.0000   1.0000   1.0000   1.0000   1.0000   1.0000
     1.0000   1.0000   1.0000   1.0000   1.0000   1.0000   0.0000   0.0000
     0.0000   0.0000

          k = 0.3264 0.2176-0.1088 (  1455 PWs)   bands (ev):

   -15.7022 -15.6942 -15.6435 -15.5828 -15.5589 -15.4438 -15.4025 -15.3859
   -15.3287 -15.3157  -2.6983   3.3235   6.5464   7.7937  11.2510  12.5498
    13.9641  14.8432

     occupation numbers 
     1.0000   1.0000   1.0000   1.0000   1.0000   1.0000   1.0000   1.0000
     1.0000   1.0000   1.0000   1.0000   1.0000   1.0000   0.0000   0.0000
     0.0000   0.0000

          k = 0.3807 0.2720-0.1632 (  1454 PWs)   bands (ev):

   -15.7073 -15.6981 -15.6333 -15.5738 -15.5549 -15.4436 -15.4095 -15.4014
   -15.3212 -15.3111  -2.1343   2.1973   6.3379   7.5095  11.0708  12.6572
    13.9308  15.8029

     occupation numbers 
     1.0000   1.0000   1.0000   1.0000   1.0000   1.0000   1.0000   1.0000
     1.0000   1.0000   1.0000   1.0000   1.0000   1.0000   0.0000   0.0000
     0.0000   0.0000

          k =-0.2720-0.3807 0.4895 (  1455 PWs)   bands (ev):

   -15.7101 -15.6997 -15.6272 -15.5662 -15.5570 -15.4372 -15.4200 -15.4083
   -15.3177 -15.3085  -1.6753   1.4480   6.2447   7.3513  10.9746  12.6329
    13.8835  16.8013

     occupation numbers 
     1.0000   1.0000   1.0000   1.0000   1.0000   1.0000   1.0000   1.0000
     1.0000   1.0000   1.0000   1.0000   1.0000   1.0000   0.0000   0.0000
     0.0000   0.0000

          k = 0.3264 0.1088 0.0000 (  1454 PWs)   bands (ev):

   -15.6943 -15.6889 -15.6623 -15.5872 -15.5522 -15.4621 -15.3900 -15.3614
   -15.3384 -15.3244  -3.0627   4.5427   6.7707   7.4735  10.8893  12.3224
    14.2211  14.8189

     occupation numbers 
     1.0000   1.0000   1.0000   1.0000   1.0000   1.0000   1.0000   1.0000
     1.0000   1.0000   1.0000   1.0000   1.0000   1.0000   0.0000   0.0000
     0.0000   0.0000

          k = 0.3807 0.1632-0.0544 (  1448 PWs)   bands (ev):

   -15.7035 -15.6958 -15.6479 -15.5755 -15.5389 -15.4741 -15.4023 -15.3767
   -15.3268 -15.3152  -2.6045   3.5021   6.1815   7.1910  11.2033  12.5191
    13.9632  15.2605

     occupation numbers 
     1.0000   1.0000   1.0000   1.0000   1.0000   1.0000   1.0000   1.0000
     1.0000   1.0000   1.0000   1.0000   1.0000   1.0000   0.0000   0.0000
     0.0000   0.0000

          k = 0.4351 0.2176-0.1088 (  1456 PWs)   bands (ev):

   -15.7123 -15.7002 -15.6322 -15.5642 -15.5328 -15.4773 -15.4151 -15.3943
   -15.3188 -15.3059  -2.0519   2.4501   5.7706   6.9436  11.2741  13.0508
    14.0203  15.3445

     occupation numbers 
     1.0000   1.0000   1.0000   1.0000   1.0000   1.0000   1.0000   1.0000
     1.0000   1.0000   1.0000   1.0000   1.0000   1.0000   0.0000   0.0000
     0.0000   0.0000

          k =-0.2176-0.4351 0.5439 (  1461 PWs)   bands (ev):

   -15.7180 -15.7031 -15.6193 -15.5542 -15.5349 -15.4712 -15.4289 -15.4076
   -15.3138 -15.2996  -1.5219   1.6090   5.4872   6.8460  11.2910  13.0414
    14.8591  15.4882

     occupation numbers 
     1.0000   1.0000   1.0000   1.0000   1.0000   1.0000   1.0000   1.0000
     1.0000   1.0000   1.0000   1.0000   1.0000   1.0000   0.0000   0.0000
     0.0000   0.0000

          k =-0.1632-0.3807 0.4895 (  1463 PWs)   bands (ev):

   -15.7195 -15.7049 -15.6129 -15.5517 -15.5382 -15.4613 -15.4382 -15.4140
   -15.3111 -15.2982  -1.3371   1.3488   5.3245   6.9230  11.3834  12.9265
    14.9345  16.6140

     occupation numbers 
     1.0000   1.0000   1.0000   1.0000   1.0000   1.0000   1.0000   1.0000
     1.0000   1.0000   1.0000   1.0000   1.0000   1.0000   0.0000   0.0000
     0.0000   0.0000

          k =-0.1088-0.3264 0.4351 (  1458 PWs)   bands (ev):

   -15.7165 -15.7055 -15.6149 -15.5624 -15.5367 -15.4604 -15.4276 -15.4147
   -15.3106 -15.3022  -1.6966   1.8741   5.3099   7.1557  11.5577  12.8816
    14.7196  15.8292

     occupation numbers 
     1.0000   1.0000   1.0000   1.0000   1.0000   1.0000   1.0000   1.0000
     1.0000   1.0000   1.0000   1.0000   1.0000   1.0000   0.0000   0.0000
     0.0000   0.0000

          k =-0.0544-0.2720 0.3807 (  1456 PWs)   bands (ev):

   -15.7092 -15.7042 -15.6255 -15.5742 -15.5413 -15.4591 -15.4112 -15.4058
   -15.3143 -15.3098  -2.2571   2.8026   5.4997   7.5010  11.7755  12.7813
    14.2181  15.0431

     occupation numbers 
     1.0000   1.0000   1.0000   1.0000   1.0000   1.0000   1.0000   1.0000
     1.0000   1.0000   1.0000   1.0000   1.0000   1.0000   0.0000   0.0000
     0.0000   0.0000

          k = 0.0000-0.2176 0.3264 (  1445 PWs)   bands (ev):

   -15.7012 -15.6983 -15.6408 -15.5841 -15.5535 -15.4505 -15.4038 -15.3843
   -15.3267 -15.3153  -2.7819   3.7860   5.9995   7.8806  11.9263  12.2794
    14.0661  14.4451

     occupation numbers 
     1.0000   1.0000   1.0000   1.0000   1.0000   1.0000   1.0000   1.0000
     1.0000   1.0000   1.0000   1.0000   1.0000   1.0000   0.0000   0.0000
     0.0000   0.0000

          k = 0.4351 0.1088 0.0000 (  1450 PWs)   bands (ev):

   -15.7007 -15.6984 -15.6544 -15.5635 -15.5164 -15.5028 -15.4109 -15.3662
   -15.3229 -15.3184  -2.3667   3.2447   6.1856   6.6633  10.4600  11.7746
    15.1371  16.3465

     occupation numbers 
     1.0000   1.0000   1.0000   1.0000   1.0000   1.0000   1.0000   1.0000
     1.0000   1.0000   1.0000   1.0000   1.0000   1.0000   0.0000   0.0000
     0.0000   0.0000

          k = 0.4895 0.1632-0.0544 (  1454 PWs)   bands (ev):

   -15.7112 -15.7032 -15.6353 -15.5502 -15.5142 -15.5036 -15.4254 -15.3868
   -15.3148 -15.3065  -1.8379   2.3903   5.6068   6.4237  10.8124  12.1376
    14.8115  16.7046

     occupation numbers 
     1.0000   1.0000   1.0000   1.0000   1.0000   1.0000   1.0000   1.0000
     1.0000   1.0000   1.0000   1.0000   1.0000   1.0000   0.0000   0.0000
     0.0000   0.0000

          k =-0.1632-0.4895 0.5983 (  1461 PWs)   bands (ev):

   -15.7204 -15.7062 -15.6165 -15.5379 -15.5161 -15.4986 -15.4410 -15.4062
   -15.3097 -15.2963  -1.2731   1.6012   5.0935   6.3477  10.9373  13.2724
    14.4837  16.5990

     occupation numbers 
     1.0000   1.0000   1.0000   1.0000   1.0000   1.0000   1.0000   1.0000
     1.0000   1.0000   1.0000   1.0000   1.0000   1.0000   0.0000   0.0000
     0.0000   0.0000

          k =-0.1088-0.4351 0.5439 (  1455 PWs)   bands (ev):

   -15.7252 -15.7083 -15.6047 -15.5305 -15.5137 -15.4955 -15.4546 -15.4175
   -15.3066 -15.2912  -0.9316   1.1780   4.7423   6.4527  11.0861  14.1515
    14.8419  16.2320

     occupation numbers 
     1.0000   1.0000   1.0000   1.0000   1.0000   1.0000   1.0000   1.0000
     1.0000   1.0000   1.0000   1.0000   1.0000   1.0000   0.0000   0.0000
     0.0000   0.0000

          k =-0.0544-0.3807 0.4895 (  1469 PWs)   bands (ev):

   -15.7246 -15.7092 -15.6023 -15.5408 -15.5166 -15.4821 -15.4554 -15.4198
   -15.3056 -15.2926  -1.1737   1.4799   4.6278   6.7131  11.3362  13.9869
    15.2873  16.2608

     occupation numbers 
     1.0000   1.0000   1.0000   1.0000   1.0000   1.0000   1.0000   1.0000
     1.0000   1.0000   1.0000   1.0000   1.0000   1.0000   0.0000   0.0000
     0.0000   0.0000

          k = 0.0000-0.3264 0.4351 (  1469 PWs)   bands (ev):

   -15.7186 -15.7083 -15.6094 -15.5603 -15.5252 -15.4722 -15.4334 -15.4167
   -15.3070 -15.3003  -1.7174   2.1586   4.8454   7.0881  11.6464  13.6103
    14.3371  15.8621

     occupation numbers 
     1.0000   1.0000   1.0000   1.0000   1.0000   1.0000   1.0000   1.0000
     1.0000   1.0000   1.0000   1.0000   1.0000   1.0000   0.0000   0.0000
     0.0000   0.0000

          k = 0.5439 0.1088 0.0000 (  1449 PWs)   bands (ev):

   -15.7064 -15.7057 -15.6379 -15.5432 -15.5344 -15.4792 -15.4385 -15.3833
   -15.3107 -15.3099  -1.4926   1.9506   5.8072   6.0788  10.2394  11.0453
    16.4326  17.8219

     occupation numbers 
     1.0000   1.0000   1.0000   1.0000   1.0000   1.0000   1.0000   1.0000
     1.0000   1.0000   1.0000   1.0000   1.0000   1.0000   0.0000   0.0000
     0.0000   0.0000

          k =-0.1088-0.5439 0.6527 (  1464 PWs)   bands (ev):

   -15.7167 -15.7085 -15.6155 -15.5496 -15.5200 -15.4708 -15.4548 -15.4063
   -15.3063 -15.2988  -0.9194   1.2616   5.2311   5.9578  10.5692  11.6917
    16.0881  17.9202

     occupation numbers 
     1.0000   1.0000   1.0000   1.0000   1.0000   1.0000   1.0000   1.0000
     1.0000   1.0000   1.0000   1.0000   1.0000   1.0000   0.0000   0.0000
     0.0000   0.0000

          k =-0.0544-0.4895 0.5983 (  1462 PWs)   bands (ev):

   -15.7248 -15.7100 -15.6001 -15.5388 -15.5079 -15.4789 -15.4700 -15.4214
   -15.3040 -15.2906  -0.4669   0.7869   4.6898   6.0625  10.7314  13.0654
    15.7575  17.0008

     occupation numbers 
     1.0000   1.0000   1.0000   1.0000   1.0000   1.0000   1.0000   1.0000
     1.0000   1.0000   1.0000   1.0000   1.0000   1.0000   0.0000   0.0000
     0.0000   0.0000

          k = 0.0000-0.4351 0.5439 (  1463 PWs)   bands (ev):

   -15.7277 -15.7104 -15.5974 -15.5144 -15.5114 -15.4972 -15.4734 -15.4232
   -15.3037 -15.2883  -0.6465   0.9867   4.4370   6.3265  10.9902  14.7142
    15.3794  15.6176

     occupation numbers 
     1.0000   1.0000   1.0000   1.0000   1.0000   1.0000   1.0000   1.0000
     1.0000   1.0000   1.0000   1.0000   1.0000   1.0000   0.0000   0.0000
     0.0000   0.0000

          k =-0.0544-0.5983 0.7071 (  1460 PWs)   bands (ev):

   -15.7098 -15.7097 -15.6128 -15.5806 -15.5025 -15.4698 -15.4428 -15.4100
   -15.3041 -15.3041  -0.4605   0.7003   5.6553   5.7429  10.2545  10.5219
    17.7789  18.6762

     occupation numbers 
     1.0000   1.0000   1.0000   1.0000   1.0000   1.0000   1.0000   1.0000
     1.0000   1.0000   1.0000   1.0000   1.0000   1.0000   0.0000   0.0000
     0.0000   0.0000

          k = 0.0000-0.5439 0.6527 (  1455 PWs)   bands (ev):

   -15.7187 -15.7104 -15.5970 -15.5737 -15.4906 -15.4840 -15.4469 -15.4254
   -15.3032 -15.2958  -0.0125   0.2822   5.0993   5.8053  10.4891  11.5291
    17.4141  17.4235

     occupation numbers 
     1.0000   1.0000   1.0000   1.0000   1.0000   1.0000   1.0000   1.0000
     1.0000   1.0000   1.0000   1.0000   1.0000   1.0000   0.0000   0.0000
     0.0000   0.0000

          k = 0.4351 0.2176 0.0000 (  1458 PWs)   bands (ev):

   -15.7082 -15.7070 -15.6298 -15.5642 -15.5239 -15.4873 -15.4147 -15.3961
   -15.3121 -15.3100  -2.1152   2.7609   5.4644   6.8703  11.8626  12.5452
    13.5996  16.1401

     occupation numbers 
     1.0000   1.0000   1.0000   1.0000   1.0000   1.0000   1.0000   1.0000
     1.0000   1.0000   1.0000   1.0000   1.0000   1.0000   0.0000   0.0000
     0.0000   0.0000

          k =-0.2176-0.4351 0.6527 (  1463 PWs)   bands (ev):

   -15.7179 -15.7095 -15.6119 -15.5519 -15.5152 -15.4926 -15.4315 -15.4131
   -15.3068 -15.2998  -1.5513   1.9541   5.0467   6.5299  12.1606  12.8872
    13.7469  16.5540

     occupation numbers 
     1.0000   1.0000   1.0000   1.0000   1.0000   1.0000   1.0000   1.0000
     1.0000   1.0000   1.0000   1.0000   1.0000   1.0000   0.0000   0.0000
     0.0000   0.0000

          k =-0.1632-0.3807 0.5983 (  1461 PWs)   bands (ev):

   -15.7233 -15.7106 -15.6011 -15.5412 -15.5148 -15.4899 -15.4484 -15.4209
   -15.3050 -15.2934  -1.0735   1.3245   4.8695   6.3263  12.2217  12.7453
    15.0314  16.3352

     occupation numbers 
     1.0000   1.0000   1.0000   1.0000   1.0000   1.0000   1.0000   1.0000
     1.0000   1.0000   1.0000   1.0000   1.0000   1.0000   0.0000   0.0000
     0.0000   0.0000

          k =-0.1632-0.4895 0.7071 (  1454 PWs)   bands (ev):

   -15.7152 -15.7128 -15.6133 -15.5368 -15.5244 -15.4913 -15.4417 -15.4085
   -15.3032 -15.3014  -1.2913   1.7267   5.1663   5.9989  11.6233  12.1968
    14.4362  17.6231

     occupation numbers 
     1.0000   1.0000   1.0000   1.0000   1.0000   1.0000   1.0000   1.0000
     1.0000   1.0000   1.0000   1.0000   1.0000   1.0000   0.0000   0.0000
     0.0000   0.0000

          k =-0.1088-0.4351 0.6527 (  1462 PWs)   bands (ev):

   -15.7229 -15.7149 -15.5933 -15.5292 -15.5219 -15.4856 -15.4599 -15.4262
   -15.3002 -15.2928  -0.7430   1.1126   4.8181   5.7630  11.9635  13.2790
    14.0707  16.7753

     occupation numbers 
     1.0000   1.0000   1.0000   1.0000   1.0000   1.0000   1.0000   1.0000
     1.0000   1.0000   1.0000   1.0000   1.0000   1.0000   0.0000   0.0000
     0.0000   0.0000

          k =-0.0544-0.3807 0.5983 (  1460 PWs)   bands (ev):

   -15.7261 -15.7153 -15.5864 -15.5248 -15.5132 -15.4915 -15.4691 -15.4313
   -15.2996 -15.2896  -0.5662   0.9281   4.6086   5.8175  12.1856  13.7629
    14.8814  15.1587

     occupation numbers 
     1.0000   1.0000   1.0000   1.0000   1.0000   1.0000   1.0000   1.0000
     1.0000   1.0000   1.0000   1.0000   1.0000   1.0000   0.0000   0.0000
     0.0000   0.0000

          k = 0.0000-0.3264 0.5439 (  1460 PWs)   bands (ev):

   -15.7238 -15.7140 -15.5942 -15.5354 -15.5068 -15.4986 -15.4557 -15.4255
   -15.3012 -15.2927  -0.9915   1.3813   4.6540   6.1032  12.4891  13.3876
    13.8542  16.5568

     occupation numbers 
     1.0000   1.0000   1.0000   1.0000   1.0000   1.0000   1.0000   1.0000
     1.0000   1.0000   1.0000   1.0000   1.0000   1.0000   0.0000   0.0000
     0.0000   0.0000

          k =-0.0544-0.4895 0.7071 (  1463 PWs)   bands (ev):

   -15.7183 -15.7172 -15.5895 -15.5592 -15.5056 -15.4730 -15.4591 -15.4304
   -15.2975 -15.2964  -0.3437   0.6801   5.1384   5.4104  11.5937  11.7889
    15.7116  17.0862

     occupation numbers 
     1.0000   1.0000   1.0000   1.0000   1.0000   1.0000   1.0000   1.0000
     1.0000   1.0000   1.0000   1.0000   1.0000   1.0000   0.0000   0.0000
     0.0000   0.0000

          k = 0.0000-0.4351 0.6527 (  1452 PWs)   bands (ev):

   -15.7243 -15.7173 -15.5779 -15.5477 -15.4994 -15.4855 -15.4662 -15.4395
   -15.2972 -15.2907  -0.0841   0.4529   4.7719   5.4558  11.8795  13.1699
    15.3316  15.4318

     occupation numbers 
     1.0000   1.0000   1.0000   1.0000   1.0000   1.0000   1.0000   1.0000
     1.0000   1.0000   1.0000   1.0000   1.0000   1.0000   0.0000   0.0000
     0.0000   0.0000

          k =-0.0544-0.3807 0.7071 (  1459 PWs)   bands (ev):

   -15.7242 -15.7203 -15.5709 -15.5409 -15.5087 -15.4817 -15.4698 -15.4439
   -15.2946 -15.2910  -0.2004   0.6000   4.7895   5.2830  13.3392  13.4503
    13.7174  15.0742

     occupation numbers 
     1.0000   1.0000   1.0000   1.0000   1.0000   1.0000   1.0000   1.0000
     1.0000   1.0000   1.0000   1.0000   1.0000   1.0000   0.0000   0.0000
     0.0000   0.0000

     the Fermi energy is     9.3027 ev

!    total energy              =    -426.37686414 Ry
     estimated scf accuracy    <          1.5E-10 Ry
     smearing contrib. (-TS)   =       0.00011947 Ry
     internal energy E=F+TS    =    -426.37698362 Ry

     The total energy is F=E-TS. E is the sum of the following terms:
     one-electron contribution =    -271.17309950 Ry
     hartree contribution      =     162.13631241 Ry
     xc contribution           =    -115.36016265 Ry
     ewald contribution        =    -201.98003389 Ry

     convergence has been achieved in   8 iterations

     Forces acting on atoms (cartesian axes, Ry/au):

     atom    1 type  1   force =     0.00000000   -0.00000000    0.00000000
     atom    2 type  1   force =     0.00000000    0.00000000    0.00000000
     The non-local contrib.  to forces
     atom    1 type  1   force =     0.00000000   -0.00000000    0.00000000
     atom    2 type  1   force =     0.00000000   -0.00000000    0.00000000
     The ionic contribution  to forces
     atom    1 type  1   force =    -0.00000000   -0.00000000   -0.00000000
     atom    2 type  1   force =     0.00000000    0.00000000    0.00000000
     The local contribution  to forces
     atom    1 type  1   force =    -0.00000000   -0.00000000   -0.00000000
     atom    2 type  1   force =    -0.00000000   -0.00000000   -0.00000000
     The core correction contribution to forces
     atom    1 type  1   force =    -0.00000000   -0.00000000    0.00000000
     atom    2 type  1   force =    -0.00000000   -0.00000000   -0.00000000
     The Hubbard contrib.    to forces
     atom    1 type  1   force =     0.00000000    0.00000000    0.00000000
     atom    2 type  1   force =     0.00000000    0.00000000    0.00000000
     The SCF correction term to forces
     atom    1 type  1   force =     0.00000000    0.00000000    0.00000000
     atom    2 type  1   force =    -0.00000000    0.00000000    0.00000000

     Total force =     0.000000     Total SCF correction =     0.000000


     Computing stress (Cartesian axis) and pressure

          total   stress  (Ry/bohr**3)                   (kbar)     P=       59.75
   0.00040620   0.00000000   0.00000000           59.75        0.00        0.00
  -0.00000000   0.00040620   0.00000000           -0.00       59.75        0.00
   0.00000000   0.00000000   0.00040620            0.00        0.00       59.75

     kinetic stress (kbar)  10787.80     -0.00     -0.00
                               -0.00  10787.80     -0.00
                               -0.00     -0.00  10787.80

     local   stress (kbar)   3313.74     -0.00      0.00
                               -0.00   3313.74      0.00
                                0.00      0.00   3313.74

     nonloc. stress (kbar)   3239.34      0.00      0.00
                                0.00   3239.34      0.00
                                0.00      0.00   3239.34

     hartree stress (kbar)  27830.55      0.00      0.00
                                0.00  27830.55      0.00
                                0.00      0.00  27830.55

     exc-cor stress (kbar)  20987.57      0.00     -0.00
                                0.00  20987.57     -0.00
                               -0.00     -0.00  20987.57

     corecor stress (kbar) -31429.56      0.00      0.00
                                0.00 -31429.56      0.00
                                0.00      0.00 -31429.56

     ewald   stress (kbar) -34669.68      0.00     -0.00
                                0.00 -34669.68     -0.00
                               -0.00     -0.00 -34669.68

     hubbard stress (kbar)      0.00      0.00      0.00
                                0.00      0.00      0.00
                                0.00      0.00      0.00

     DFT-D   stress (kbar)      0.00      0.00      0.00
                                0.00      0.00      0.00
                                0.00      0.00      0.00

     XDM     stress (kbar)      0.00      0.00      0.00
                                0.00      0.00      0.00
                                0.00      0.00      0.00

     dft-nl  stress (kbar)      0.00      0.00      0.00
                                0.00      0.00      0.00
                                0.00      0.00      0.00

     TS-vdW  stress (kbar)      0.00      0.00      0.00
                                0.00      0.00      0.00
                                0.00      0.00      0.00

     MDB     stress (kbar)      0.00      0.00      0.00
                                0.00      0.00      0.00
                                0.00      0.00      0.00

     3D-RISM stress (kbar)      0.00      0.00      0.00
                                0.00      0.00      0.00
                                0.00      0.00      0.00


     Writing all to output data dir ./out/aiida.save/ :
     XML data file, charge density, pseudopotentials, collected wavefunctions

     init_run     :      6.51s CPU      3.75s WALL (       1 calls)
     electrons    :    173.63s CPU     86.23s WALL (       1 calls)
     forces       :      1.51s CPU      0.67s WALL (       1 calls)
     stress       :      6.60s CPU      3.60s WALL (       1 calls)

     Called by init_run:
     wfcinit      :      6.02s CPU      3.25s WALL (       1 calls)
     wfcinit:atom :      0.11s CPU      0.06s WALL (      84 calls)
     wfcinit:wfcr :      5.24s CPU      2.87s WALL (      84 calls)
     potinit      :      0.07s CPU      0.07s WALL (       1 calls)
     hinit0       :      0.25s CPU      0.25s WALL (       1 calls)

     Called by electrons:
     c_bands      :    143.49s CPU     69.15s WALL (       9 calls)
     sum_band     :     27.99s CPU     14.89s WALL (       9 calls)
     v_of_rho     :      0.59s CPU      0.63s WALL (       9 calls)
     v_h          :      0.03s CPU      0.04s WALL (       9 calls)
     v_xc         :      0.81s CPU      0.74s WALL (      11 calls)
     newd         :      1.64s CPU      1.65s WALL (       9 calls)
     mix_rho      :      0.06s CPU      0.06s WALL (       9 calls)

     Called by c_bands:
     init_us_2    :      4.18s CPU      1.77s WALL (    1764 calls)
     cegterg      :    136.27s CPU     65.66s WALL (     756 calls)

     Called by sum_band:
     sum_band:wei :      0.09s CPU      0.04s WALL (       9 calls)
     sum_band:loo :     23.83s CPU     12.42s WALL (       9 calls)
     sum_band:buf :      0.20s CPU      0.07s WALL (     756 calls)
     sum_band:ini :      1.76s CPU      0.78s WALL (     756 calls)
     sum_band:cal :      1.39s CPU      0.76s WALL (     756 calls)
     sum_band:bec :      0.06s CPU      0.02s WALL (     756 calls)
     addusdens    :      3.95s CPU      2.33s WALL (       9 calls)
                                        0.00s GPU  (       9 calls)
     addusd:skk   :      0.01s CPU      0.01s WALL (       9 calls)
                                        0.00s GPU  (       9 calls)

     Called by *egterg:
     cdiaghg      :      5.51s CPU      2.05s WALL (    2348 calls)
     cegterg:over :      4.22s CPU      1.13s WALL (    1676 calls)
     cegterg:upda :      2.49s CPU      0.85s WALL (    1676 calls)
     cegterg:last :      4.07s CPU      1.14s WALL (    1420 calls)
     h_psi        :    117.96s CPU     61.13s WALL (    2516 calls)
     s_psi        :      2.98s CPU      0.89s WALL (    2516 calls)
     g_psi        :      0.82s CPU      0.24s WALL (    1676 calls)

     Called by h_psi:
     h_psi:calbec :      4.44s CPU      2.88s WALL (    2516 calls)
     vloc_psi     :    109.83s CPU     57.03s WALL (    2516 calls)
                                        0.00s GPU  (    2516 calls)
     add_vuspsi   :      3.19s CPU      1.02s WALL (    2516 calls)

     General routines
     calbec       :      7.72s CPU      4.54s WALL (    4700 calls)
     fft          :      0.46s CPU      0.41s WALL (     141 calls)
     ffts         :      0.03s CPU      0.02s WALL (      18 calls)
     fftw         :    115.99s CPU     60.98s WALL (   84206 calls)
     interpolate  :      0.03s CPU      0.03s WALL (       9 calls)

     Parallel routines

     PWSCF        :   3m 8.58s CPU   1m34.51s WALL


   This run was terminated on:   0:27:28  25Dec2025            

=------------------------------------------------------------------------------=
   JOB DONE.
=------------------------------------------------------------------------------=
