
     Program PWSCF v.7.4.1 starts on 24Dec2025 at 23:59:13 

     This program is part of the open-source Quantum ESPRESSO suite
     for quantum simulation of materials; please cite
         "P. Giannozzi et al., J. Phys.:Condens. Matter 21 395502 (2009);
         "P. Giannozzi et al., J. Phys.:Condens. Matter 29 465901 (2017);
         "P. Giannozzi et al., J. Chem. Phys. 152 154105 (2020);
          URL http://www.quantum-espresso.org", 
     in publications or presentations arising from this work. More details at
     http://www.quantum-espresso.org/quote

     Parallel version (MPI), running on     1 processors

     MPI processes distributed on     1 nodes
     374 MiB available memory on the printing compute node when the environment starts

     Waiting for input...
     Reading input from standard input
Warning: card &CELL ignored

     Current dimensions of program PWSCF are:
     Max number of different atomic species (ntypx) = 10
     Max number of k-points (npk) =  40000
     Max angular momentum in pseudopotentials (lmaxx) =  4
     Message from routine setup:
     using ibrav=0 with symmetry is DISCOURAGED, use correct ibrav instead

     Subspace diagonalization in iterative solution of the eigenvalue problem:
     a serial algorithm will be used


     G-vector sticks info
     --------------------
     sticks:   dense  smooth     PW     G-vecs:    dense   smooth      PW
     Sum        1483     745    223                37309    13323    2229

     Using Slab Decomposition



     bravais-lattice index     =            0
     lattice parameter (alat)  =       7.7006  a.u.
     unit-cell volume          =     322.8875 (a.u.)^3
     number of atoms/cell      =            2
     number of atomic types    =            1
     number of electrons       =        28.00
     number of Kohn-Sham states=           18
     kinetic-energy cutoff     =      45.0000  Ry
     charge density cutoff     =     360.0000  Ry
     scf convergence threshold =      4.0E-10
     mixing beta               =       0.4000
     number of iterations used =            8  plain     mixing
     Exchange-correlation= SLA  PW   PSX  PSC
                           (   1   4  10   8   0   0   0)

     celldm(1)=   7.700556  celldm(2)=   0.000000  celldm(3)=   0.000000
     celldm(4)=   0.000000  celldm(5)=   0.000000  celldm(6)=   0.000000

     crystal axes: (cart. coord. in units of alat)
               a(1) = (   0.000000   0.707107   0.707107 )  
               a(2) = (   0.707107   0.000000   0.707107 )  
               a(3) = (   0.707107   0.707107   0.000000 )  

     reciprocal axes: (cart. coord. in units 2 pi/alat)
               b(1) = ( -0.707107  0.707107  0.707107 )  
               b(2) = (  0.707107 -0.707107  0.707107 )  
               b(3) = (  0.707107  0.707107 -0.707107 )  


     PseudoPot. # 1 for Ge read from file:
     ./pseudo/ge_pbesol_v1.4.uspp.F.UPF
     MD5 check sum: 7bed0412183f5e553a4d27ec7023354d
     Pseudo is Ultrasoft + core correction, Zval = 14.0
     Generated by new atomic code, or converted to UPF format
     Using radial grid of  873 points,  6 beta functions with: 
                l(1) =   0
                l(2) =   0
                l(3) =   1
                l(4) =   1
                l(5) =   2
                l(6) =   2
     Q(r) pseudized with  8 coefficients,  rinner =    1.400   1.400   1.400
                                                       1.400   1.400

     atomic species   valence    mass     pseudopotential
     Ge               14.00    72.64000     Ge( 1.00)

     48 Sym. Ops., with inversion, found (24 have fractional translation)


                                    s                        frac. trans.

      isym =  1     identity                                     

 cryst.   s( 1) = (     1          0          0      )
                  (     0          1          0      )
                  (     0          0          1      )

 cart.    s( 1) = (  1.0000000  0.0000000  0.0000000 )
                  (  0.0000000  1.0000000  0.0000000 )
                  (  0.0000000  0.0000000  1.0000000 )


      isym =  2     180 deg rotation - cart. axis [0,0,1]        

 cryst.   s( 2) = (     0          1         -1      )
                  (     1          0         -1      )
                  (     0          0         -1      )

 cart.    s( 2) = ( -1.0000000  0.0000000  0.0000000 )
                  (  0.0000000 -1.0000000  0.0000000 )
                  (  0.0000000  0.0000000  1.0000000 )


      isym =  3     180 deg rotation - cart. axis [0,1,0]        

 cryst.   s( 3) = (     0         -1          1      )
                  (     0         -1          0      )
                  (     1         -1          0      )

 cart.    s( 3) = ( -1.0000000  0.0000000  0.0000000 )
                  (  0.0000000  1.0000000  0.0000000 )
                  (  0.0000000  0.0000000 -1.0000000 )


      isym =  4     180 deg rotation - cart. axis [1,0,0]        

 cryst.   s( 4) = (    -1          0          0      )
                  (    -1          0          1      )
                  (    -1          1          0      )

 cart.    s( 4) = (  1.0000000  0.0000000  0.0000000 )
                  (  0.0000000 -1.0000000  0.0000000 )
                  (  0.0000000  0.0000000 -1.0000000 )


      isym =  5     180 deg rotation - cart. axis [1,1,0]        

 cryst.   s( 5) = (    -1          0          1      )    f =( -0.2500000 )
                  (     0         -1          1      )       ( -0.2500000 )
                  (     0          0          1      )       ( -0.2500000 )

 cart.    s( 5) = (  0.0000000  1.0000000  0.0000000 )    f =( -0.3535534 )
                  (  1.0000000  0.0000000  0.0000000 )       ( -0.3535534 )
                  (  0.0000000  0.0000000 -1.0000000 )       ( -0.3535534 )


      isym =  6     180 deg rotation - cart. axis [1,-1,0]       

 cryst.   s( 6) = (     0         -1          0      )    f =( -0.2500000 )
                  (    -1          0          0      )       ( -0.2500000 )
                  (     0          0         -1      )       ( -0.2500000 )

 cart.    s( 6) = (  0.0000000 -1.0000000  0.0000000 )    f =( -0.3535534 )
                  ( -1.0000000  0.0000000  0.0000000 )       ( -0.3535534 )
                  (  0.0000000  0.0000000 -1.0000000 )       ( -0.3535534 )


      isym =  7      90 deg rotation - cart. axis [0,0,-1]       

 cryst.   s( 7) = (     0          1          0      )    f =( -0.2500000 )
                  (     0          1         -1      )       ( -0.2500000 )
                  (    -1          1          0      )       ( -0.2500000 )

 cart.    s( 7) = (  0.0000000  1.0000000  0.0000000 )    f =( -0.3535534 )
                  ( -1.0000000  0.0000000  0.0000000 )       ( -0.3535534 )
                  (  0.0000000  0.0000000  1.0000000 )       ( -0.3535534 )


      isym =  8      90 deg rotation - cart. axis [0,0,1]        

 cryst.   s( 8) = (     1          0         -1      )    f =( -0.2500000 )
                  (     1          0          0      )       ( -0.2500000 )
                  (     1         -1          0      )       ( -0.2500000 )

 cart.    s( 8) = (  0.0000000 -1.0000000  0.0000000 )    f =( -0.3535534 )
                  (  1.0000000  0.0000000  0.0000000 )       ( -0.3535534 )
                  (  0.0000000  0.0000000  1.0000000 )       ( -0.3535534 )


      isym =  9     180 deg rotation - cart. axis [1,0,1]        

 cryst.   s( 9) = (    -1          1          0      )    f =( -0.2500000 )
                  (     0          1          0      )       ( -0.2500000 )
                  (     0          1         -1      )       ( -0.2500000 )

 cart.    s( 9) = (  0.0000000  0.0000000  1.0000000 )    f =( -0.3535534 )
                  (  0.0000000 -1.0000000  0.0000000 )       ( -0.3535534 )
                  (  1.0000000  0.0000000  0.0000000 )       ( -0.3535534 )


      isym = 10     180 deg rotation - cart. axis [-1,0,1]       

 cryst.   s(10) = (     0          0         -1      )    f =( -0.2500000 )
                  (     0         -1          0      )       ( -0.2500000 )
                  (    -1          0          0      )       ( -0.2500000 )

 cart.    s(10) = (  0.0000000  0.0000000 -1.0000000 )    f =( -0.3535534 )
                  (  0.0000000 -1.0000000  0.0000000 )       ( -0.3535534 )
                  ( -1.0000000  0.0000000  0.0000000 )       ( -0.3535534 )


      isym = 11      90 deg rotation - cart. axis [0,1,0]        

 cryst.   s(11) = (     0          0          1      )    f =( -0.2500000 )
                  (    -1          0          1      )       ( -0.2500000 )
                  (     0         -1          1      )       ( -0.2500000 )

 cart.    s(11) = (  0.0000000  0.0000000  1.0000000 )    f =( -0.3535534 )
                  (  0.0000000  1.0000000  0.0000000 )       ( -0.3535534 )
                  ( -1.0000000  0.0000000  0.0000000 )       ( -0.3535534 )


      isym = 12      90 deg rotation - cart. axis [0,-1,0]       

 cryst.   s(12) = (     1         -1          0      )    f =( -0.2500000 )
                  (     1          0         -1      )       ( -0.2500000 )
                  (     1          0          0      )       ( -0.2500000 )

 cart.    s(12) = (  0.0000000  0.0000000 -1.0000000 )    f =( -0.3535534 )
                  (  0.0000000  1.0000000  0.0000000 )       ( -0.3535534 )
                  (  1.0000000  0.0000000  0.0000000 )       ( -0.3535534 )


      isym = 13     180 deg rotation - cart. axis [0,1,1]        

 cryst.   s(13) = (     1          0          0      )    f =( -0.2500000 )
                  (     1         -1          0      )       ( -0.2500000 )
                  (     1          0         -1      )       ( -0.2500000 )

 cart.    s(13) = ( -1.0000000  0.0000000  0.0000000 )    f =( -0.3535534 )
                  (  0.0000000  0.0000000  1.0000000 )       ( -0.3535534 )
                  (  0.0000000  1.0000000  0.0000000 )       ( -0.3535534 )


      isym = 14     180 deg rotation - cart. axis [0,1,-1]       

 cryst.   s(14) = (    -1          0          0      )    f =( -0.2500000 )
                  (     0          0         -1      )       ( -0.2500000 )
                  (     0         -1          0      )       ( -0.2500000 )

 cart.    s(14) = ( -1.0000000  0.0000000  0.0000000 )    f =( -0.3535534 )
                  (  0.0000000  0.0000000 -1.0000000 )       ( -0.3535534 )
                  (  0.0000000 -1.0000000  0.0000000 )       ( -0.3535534 )


      isym = 15      90 deg rotation - cart. axis [-1,0,0]       

 cryst.   s(15) = (     0         -1          1      )    f =( -0.2500000 )
                  (     0          0          1      )       ( -0.2500000 )
                  (    -1          0          1      )       ( -0.2500000 )

 cart.    s(15) = (  1.0000000  0.0000000  0.0000000 )    f =( -0.3535534 )
                  (  0.0000000  0.0000000  1.0000000 )       ( -0.3535534 )
                  (  0.0000000 -1.0000000  0.0000000 )       ( -0.3535534 )


      isym = 16      90 deg rotation - cart. axis [1,0,0]        

 cryst.   s(16) = (     0          1         -1      )    f =( -0.2500000 )
                  (    -1          1          0      )       ( -0.2500000 )
                  (     0          1          0      )       ( -0.2500000 )

 cart.    s(16) = (  1.0000000  0.0000000  0.0000000 )    f =( -0.3535534 )
                  (  0.0000000  0.0000000 -1.0000000 )       ( -0.3535534 )
                  (  0.0000000  1.0000000  0.0000000 )       ( -0.3535534 )


      isym = 17     120 deg rotation - cart. axis [-1,-1,-1]     

 cryst.   s(17) = (     0          0          1      )
                  (     1          0          0      )
                  (     0          1          0      )

 cart.    s(17) = (  0.0000000  1.0000000  0.0000000 )
                  (  0.0000000  0.0000000  1.0000000 )
                  (  1.0000000  0.0000000  0.0000000 )


      isym = 18     120 deg rotation - cart. axis [-1,1,1]       

 cryst.   s(18) = (     1         -1          0      )
                  (     0         -1          1      )
                  (     0         -1          0      )

 cart.    s(18) = (  0.0000000 -1.0000000  0.0000000 )
                  (  0.0000000  0.0000000  1.0000000 )
                  ( -1.0000000  0.0000000  0.0000000 )


      isym = 19     120 deg rotation - cart. axis [1,1,-1]       

 cryst.   s(19) = (    -1          1          0      )
                  (    -1          0          0      )
                  (    -1          0          1      )

 cart.    s(19) = (  0.0000000  1.0000000  0.0000000 )
                  (  0.0000000  0.0000000 -1.0000000 )
                  ( -1.0000000  0.0000000  0.0000000 )


      isym = 20     120 deg rotation - cart. axis [1,-1,1]       

 cryst.   s(20) = (     0          0         -1      )
                  (     0          1         -1      )
                  (     1          0         -1      )

 cart.    s(20) = (  0.0000000 -1.0000000  0.0000000 )
                  (  0.0000000  0.0000000 -1.0000000 )
                  (  1.0000000  0.0000000  0.0000000 )


      isym = 21     120 deg rotation - cart. axis [1,1,1]        

 cryst.   s(21) = (     0          1          0      )
                  (     0          0          1      )
                  (     1          0          0      )

 cart.    s(21) = (  0.0000000  0.0000000  1.0000000 )
                  (  1.0000000  0.0000000  0.0000000 )
                  (  0.0000000  1.0000000  0.0000000 )


      isym = 22     120 deg rotation - cart. axis [-1,1,-1]      

 cryst.   s(22) = (    -1          0          1      )
                  (    -1          1          0      )
                  (    -1          0          0      )

 cart.    s(22) = (  0.0000000  0.0000000  1.0000000 )
                  ( -1.0000000  0.0000000  0.0000000 )
                  (  0.0000000 -1.0000000  0.0000000 )


      isym = 23     120 deg rotation - cart. axis [1,-1,-1]      

 cryst.   s(23) = (     1          0         -1      )
                  (     0          0         -1      )
                  (     0          1         -1      )

 cart.    s(23) = (  0.0000000  0.0000000 -1.0000000 )
                  ( -1.0000000  0.0000000  0.0000000 )
                  (  0.0000000  1.0000000  0.0000000 )


      isym = 24     120 deg rotation - cart. axis [-1,-1,1]      

 cryst.   s(24) = (     0         -1          0      )
                  (     1         -1          0      )
                  (     0         -1          1      )

 cart.    s(24) = (  0.0000000  0.0000000 -1.0000000 )
                  (  1.0000000  0.0000000  0.0000000 )
                  (  0.0000000 -1.0000000  0.0000000 )


      isym = 25     inversion                                    

 cryst.   s(25) = (    -1          0          0      )    f =( -0.2500000 )
                  (     0         -1          0      )       ( -0.2500000 )
                  (     0          0         -1      )       ( -0.2500000 )

 cart.    s(25) = ( -1.0000000  0.0000000  0.0000000 )    f =( -0.3535534 )
                  (  0.0000000 -1.0000000  0.0000000 )       ( -0.3535534 )
                  (  0.0000000  0.0000000 -1.0000000 )       ( -0.3535534 )


      isym = 26     inv. 180 deg rotation - cart. axis [0,0,1]   

 cryst.   s(26) = (     0         -1          1      )    f =( -0.2500000 )
                  (    -1          0          1      )       ( -0.2500000 )
                  (     0          0          1      )       ( -0.2500000 )

 cart.    s(26) = (  1.0000000  0.0000000  0.0000000 )    f =( -0.3535534 )
                  (  0.0000000  1.0000000  0.0000000 )       ( -0.3535534 )
                  (  0.0000000  0.0000000 -1.0000000 )       ( -0.3535534 )


      isym = 27     inv. 180 deg rotation - cart. axis [0,1,0]   

 cryst.   s(27) = (     0          1         -1      )    f =( -0.2500000 )
                  (     0          1          0      )       ( -0.2500000 )
                  (    -1          1          0      )       ( -0.2500000 )

 cart.    s(27) = (  1.0000000  0.0000000  0.0000000 )    f =( -0.3535534 )
                  (  0.0000000 -1.0000000  0.0000000 )       ( -0.3535534 )
                  (  0.0000000  0.0000000  1.0000000 )       ( -0.3535534 )


      isym = 28     inv. 180 deg rotation - cart. axis [1,0,0]   

 cryst.   s(28) = (     1          0          0      )    f =( -0.2500000 )
                  (     1          0         -1      )       ( -0.2500000 )
                  (     1         -1          0      )       ( -0.2500000 )

 cart.    s(28) = ( -1.0000000  0.0000000  0.0000000 )    f =( -0.3535534 )
                  (  0.0000000  1.0000000  0.0000000 )       ( -0.3535534 )
                  (  0.0000000  0.0000000  1.0000000 )       ( -0.3535534 )


      isym = 29     inv. 180 deg rotation - cart. axis [1,1,0]   

 cryst.   s(29) = (     1          0         -1      )
                  (     0          1         -1      )
                  (     0          0         -1      )

 cart.    s(29) = (  0.0000000 -1.0000000  0.0000000 )
                  ( -1.0000000  0.0000000  0.0000000 )
                  (  0.0000000  0.0000000  1.0000000 )


      isym = 30     inv. 180 deg rotation - cart. axis [1,-1,0]  

 cryst.   s(30) = (     0          1          0      )
                  (     1          0          0      )
                  (     0          0          1      )

 cart.    s(30) = (  0.0000000  1.0000000  0.0000000 )
                  (  1.0000000  0.0000000  0.0000000 )
                  (  0.0000000  0.0000000  1.0000000 )


      isym = 31     inv.  90 deg rotation - cart. axis [0,0,-1]  

 cryst.   s(31) = (     0         -1          0      )
                  (     0         -1          1      )
                  (     1         -1          0      )

 cart.    s(31) = (  0.0000000 -1.0000000  0.0000000 )
                  (  1.0000000  0.0000000  0.0000000 )
                  (  0.0000000  0.0000000 -1.0000000 )


      isym = 32     inv.  90 deg rotation - cart. axis [0,0,1]   

 cryst.   s(32) = (    -1          0          1      )
                  (    -1          0          0      )
                  (    -1          1          0      )

 cart.    s(32) = (  0.0000000  1.0000000  0.0000000 )
                  ( -1.0000000  0.0000000  0.0000000 )
                  (  0.0000000  0.0000000 -1.0000000 )


      isym = 33     inv. 180 deg rotation - cart. axis [1,0,1]   

 cryst.   s(33) = (     1         -1          0      )
                  (     0         -1          0      )
                  (     0         -1          1      )

 cart.    s(33) = (  0.0000000  0.0000000 -1.0000000 )
                  (  0.0000000  1.0000000  0.0000000 )
                  ( -1.0000000  0.0000000  0.0000000 )


      isym = 34     inv. 180 deg rotation - cart. axis [-1,0,1]  

 cryst.   s(34) = (     0          0          1      )
                  (     0          1          0      )
                  (     1          0          0      )

 cart.    s(34) = (  0.0000000  0.0000000  1.0000000 )
                  (  0.0000000  1.0000000  0.0000000 )
                  (  1.0000000  0.0000000  0.0000000 )


      isym = 35     inv.  90 deg rotation - cart. axis [0,1,0]   

 cryst.   s(35) = (     0          0         -1      )
                  (     1          0         -1      )
                  (     0          1         -1      )

 cart.    s(35) = (  0.0000000  0.0000000 -1.0000000 )
                  (  0.0000000 -1.0000000  0.0000000 )
                  (  1.0000000  0.0000000  0.0000000 )


      isym = 36     inv.  90 deg rotation - cart. axis [0,-1,0]  

 cryst.   s(36) = (    -1          1          0      )
                  (    -1          0          1      )
                  (    -1          0          0      )

 cart.    s(36) = (  0.0000000  0.0000000  1.0000000 )
                  (  0.0000000 -1.0000000  0.0000000 )
                  ( -1.0000000  0.0000000  0.0000000 )


      isym = 37     inv. 180 deg rotation - cart. axis [0,1,1]   

 cryst.   s(37) = (    -1          0          0      )
                  (    -1          1          0      )
                  (    -1          0          1      )

 cart.    s(37) = (  1.0000000  0.0000000  0.0000000 )
                  (  0.0000000  0.0000000 -1.0000000 )
                  (  0.0000000 -1.0000000  0.0000000 )


      isym = 38     inv. 180 deg rotation - cart. axis [0,1,-1]  

 cryst.   s(38) = (     1          0          0      )
                  (     0          0          1      )
                  (     0          1          0      )

 cart.    s(38) = (  1.0000000  0.0000000  0.0000000 )
                  (  0.0000000  0.0000000  1.0000000 )
                  (  0.0000000  1.0000000  0.0000000 )


      isym = 39     inv.  90 deg rotation - cart. axis [-1,0,0]  

 cryst.   s(39) = (     0          1         -1      )
                  (     0          0         -1      )
                  (     1          0         -1      )

 cart.    s(39) = ( -1.0000000  0.0000000  0.0000000 )
                  (  0.0000000  0.0000000 -1.0000000 )
                  (  0.0000000  1.0000000  0.0000000 )


      isym = 40     inv.  90 deg rotation - cart. axis [1,0,0]   

 cryst.   s(40) = (     0         -1          1      )
                  (     1         -1          0      )
                  (     0         -1          0      )

 cart.    s(40) = ( -1.0000000  0.0000000  0.0000000 )
                  (  0.0000000  0.0000000  1.0000000 )
                  (  0.0000000 -1.0000000  0.0000000 )


      isym = 41     inv. 120 deg rotation - cart. axis [-1,-1,-1]

 cryst.   s(41) = (     0          0         -1      )    f =( -0.2500000 )
                  (    -1          0          0      )       ( -0.2500000 )
                  (     0         -1          0      )       ( -0.2500000 )

 cart.    s(41) = (  0.0000000 -1.0000000  0.0000000 )    f =( -0.3535534 )
                  (  0.0000000  0.0000000 -1.0000000 )       ( -0.3535534 )
                  ( -1.0000000  0.0000000  0.0000000 )       ( -0.3535534 )


      isym = 42     inv. 120 deg rotation - cart. axis [-1,1,1]  

 cryst.   s(42) = (    -1          1          0      )    f =( -0.2500000 )
                  (     0          1         -1      )       ( -0.2500000 )
                  (     0          1          0      )       ( -0.2500000 )

 cart.    s(42) = (  0.0000000  1.0000000  0.0000000 )    f =( -0.3535534 )
                  (  0.0000000  0.0000000 -1.0000000 )       ( -0.3535534 )
                  (  1.0000000  0.0000000  0.0000000 )       ( -0.3535534 )


      isym = 43     inv. 120 deg rotation - cart. axis [1,1,-1]  

 cryst.   s(43) = (     1         -1          0      )    f =( -0.2500000 )
                  (     1          0          0      )       ( -0.2500000 )
                  (     1          0         -1      )       ( -0.2500000 )

 cart.    s(43) = (  0.0000000 -1.0000000  0.0000000 )    f =( -0.3535534 )
                  (  0.0000000  0.0000000  1.0000000 )       ( -0.3535534 )
                  (  1.0000000  0.0000000  0.0000000 )       ( -0.3535534 )


      isym = 44     inv. 120 deg rotation - cart. axis [1,-1,1]  

 cryst.   s(44) = (     0          0          1      )    f =( -0.2500000 )
                  (     0         -1          1      )       ( -0.2500000 )
                  (    -1          0          1      )       ( -0.2500000 )

 cart.    s(44) = (  0.0000000  1.0000000  0.0000000 )    f =( -0.3535534 )
                  (  0.0000000  0.0000000  1.0000000 )       ( -0.3535534 )
                  ( -1.0000000  0.0000000  0.0000000 )       ( -0.3535534 )


      isym = 45     inv. 120 deg rotation - cart. axis [1,1,1]   

 cryst.   s(45) = (     0         -1          0      )    f =( -0.2500000 )
                  (     0          0         -1      )       ( -0.2500000 )
                  (    -1          0          0      )       ( -0.2500000 )

 cart.    s(45) = (  0.0000000  0.0000000 -1.0000000 )    f =( -0.3535534 )
                  ( -1.0000000  0.0000000  0.0000000 )       ( -0.3535534 )
                  (  0.0000000 -1.0000000  0.0000000 )       ( -0.3535534 )


      isym = 46     inv. 120 deg rotation - cart. axis [-1,1,-1] 

 cryst.   s(46) = (     1          0         -1      )    f =( -0.2500000 )
                  (     1         -1          0      )       ( -0.2500000 )
                  (     1          0          0      )       ( -0.2500000 )

 cart.    s(46) = (  0.0000000  0.0000000 -1.0000000 )    f =( -0.3535534 )
                  (  1.0000000  0.0000000  0.0000000 )       ( -0.3535534 )
                  (  0.0000000  1.0000000  0.0000000 )       ( -0.3535534 )


      isym = 47     inv. 120 deg rotation - cart. axis [1,-1,-1] 

 cryst.   s(47) = (    -1          0          1      )    f =( -0.2500000 )
                  (     0          0          1      )       ( -0.2500000 )
                  (     0         -1          1      )       ( -0.2500000 )

 cart.    s(47) = (  0.0000000  0.0000000  1.0000000 )    f =( -0.3535534 )
                  (  1.0000000  0.0000000  0.0000000 )       ( -0.3535534 )
                  (  0.0000000 -1.0000000  0.0000000 )       ( -0.3535534 )


      isym = 48     inv. 120 deg rotation - cart. axis [-1,-1,1] 

 cryst.   s(48) = (     0          1          0      )    f =( -0.2500000 )
                  (    -1          1          0      )       ( -0.2500000 )
                  (     0          1         -1      )       ( -0.2500000 )

 cart.    s(48) = (  0.0000000  0.0000000  1.0000000 )    f =( -0.3535534 )
                  ( -1.0000000  0.0000000  0.0000000 )       ( -0.3535534 )
                  (  0.0000000  1.0000000  0.0000000 )       ( -0.3535534 )


   Cartesian axes

     site n.     atom                  positions (alat units)
         1        Ge     tau(   1) = (   0.7071068   0.7071068   0.7071068  )
         2        Ge     tau(   2) = (   1.0606602   1.0606602   1.0606602  )

   Crystallographic axes

     site n.     atom                  positions (cryst. coord.)
         1        Ge     tau(   1) = (  0.5000000  0.5000000  0.5000000  )
         2        Ge     tau(   2) = (  0.7500000  0.7500000  0.7500000  )

     number of k points=    84  Marzari-Vanderbilt smearing, width (Ry)=  0.0200
                       cart. coord. in units 2pi/alat
        k(    1) = (   0.0000000   0.0000000   0.0000000), wk =   0.0009103
        k(    2) = (   0.0543928   0.0543928  -0.0543928), wk =   0.0072827
        k(    3) = (   0.1087857   0.1087857  -0.1087857), wk =   0.0072827
        k(    4) = (   0.1631785   0.1631785  -0.1631785), wk =   0.0072827
        k(    5) = (   0.2175713   0.2175713  -0.2175713), wk =   0.0072827
        k(    6) = (   0.2719641   0.2719641  -0.2719641), wk =   0.0072827
        k(    7) = (   0.3263570   0.3263570  -0.3263570), wk =   0.0072827
        k(    8) = (   0.1087857   0.0000000   0.0000000), wk =   0.0054620
        k(    9) = (   0.1631785   0.0543928  -0.0543928), wk =   0.0218480
        k(   10) = (   0.2175713   0.1087857  -0.1087857), wk =   0.0218480
        k(   11) = (   0.2719641   0.1631785  -0.1631785), wk =   0.0218480
        k(   12) = (   0.3263570   0.2175713  -0.2175713), wk =   0.0218480
        k(   13) = (   0.3807498   0.2719641  -0.2719641), wk =   0.0218480
        k(   14) = (  -0.2719641  -0.3807498   0.3807498), wk =   0.0218480
        k(   15) = (  -0.2175713  -0.3263570   0.3263570), wk =   0.0218480
        k(   16) = (  -0.1631785  -0.2719641   0.2719641), wk =   0.0218480
        k(   17) = (  -0.1087857  -0.2175713   0.2175713), wk =   0.0218480
        k(   18) = (  -0.0543928  -0.1631785   0.1631785), wk =   0.0218480
        k(   19) = (   0.0000000  -0.1087857   0.1087857), wk =   0.0109240
        k(   20) = (   0.2175713   0.0000000   0.0000000), wk =   0.0054620
        k(   21) = (   0.2719641   0.0543928  -0.0543928), wk =   0.0218480
        k(   22) = (   0.3263570   0.1087857  -0.1087857), wk =   0.0218480
        k(   23) = (   0.3807498   0.1631785  -0.1631785), wk =   0.0218480
        k(   24) = (   0.4351426   0.2175713  -0.2175713), wk =   0.0218480
        k(   25) = (  -0.2175713  -0.4351426   0.4351426), wk =   0.0218480
        k(   26) = (  -0.1631785  -0.3807498   0.3807498), wk =   0.0218480
        k(   27) = (  -0.1087857  -0.3263570   0.3263570), wk =   0.0218480
        k(   28) = (  -0.0543928  -0.2719641   0.2719641), wk =   0.0218480
        k(   29) = (   0.0000000  -0.2175713   0.2175713), wk =   0.0109240
        k(   30) = (   0.3263570   0.0000000   0.0000000), wk =   0.0054620
        k(   31) = (   0.3807498   0.0543928  -0.0543928), wk =   0.0218480
        k(   32) = (   0.4351426   0.1087857  -0.1087857), wk =   0.0218480
        k(   33) = (   0.4895355   0.1631785  -0.1631785), wk =   0.0218480
        k(   34) = (  -0.1631785  -0.4895355   0.4895355), wk =   0.0218480
        k(   35) = (  -0.1087857  -0.4351426   0.4351426), wk =   0.0218480
        k(   36) = (  -0.0543928  -0.3807498   0.3807498), wk =   0.0218480
        k(   37) = (   0.0000000  -0.3263570   0.3263570), wk =   0.0109240
        k(   38) = (   0.4351426   0.0000000   0.0000000), wk =   0.0054620
        k(   39) = (   0.4895355   0.0543928  -0.0543928), wk =   0.0218480
        k(   40) = (   0.5439283   0.1087857  -0.1087857), wk =   0.0218480
        k(   41) = (  -0.1087857  -0.5439283   0.5439283), wk =   0.0218480
        k(   42) = (  -0.0543928  -0.4895355   0.4895355), wk =   0.0218480
        k(   43) = (   0.0000000  -0.4351426   0.4351426), wk =   0.0109240
        k(   44) = (   0.5439283   0.0000000   0.0000000), wk =   0.0054620
        k(   45) = (   0.5983211   0.0543928  -0.0543928), wk =   0.0218480
        k(   46) = (  -0.0543928  -0.5983211   0.5983211), wk =   0.0218480
        k(   47) = (   0.0000000  -0.5439283   0.5439283), wk =   0.0109240
        k(   48) = (   0.6527140   0.0000000   0.0000000), wk =   0.0054620
        k(   49) = (   0.0000000  -0.6527140   0.6527140), wk =   0.0109240
        k(   50) = (   0.2175713   0.1087857   0.0000000), wk =   0.0218480
        k(   51) = (   0.2719641   0.1631785  -0.0543928), wk =   0.0436959
        k(   52) = (   0.3263570   0.2175713  -0.1087857), wk =   0.0436959
        k(   53) = (   0.3807498   0.2719641  -0.1631785), wk =   0.0436959
        k(   54) = (  -0.2719641  -0.3807498   0.4895355), wk =   0.0436959
        k(   55) = (   0.3263570   0.1087857   0.0000000), wk =   0.0218480
        k(   56) = (   0.3807498   0.1631785  -0.0543928), wk =   0.0436959
        k(   57) = (   0.4351426   0.2175713  -0.1087857), wk =   0.0436959
        k(   58) = (  -0.2175713  -0.4351426   0.5439283), wk =   0.0436959
        k(   59) = (  -0.1631785  -0.3807498   0.4895355), wk =   0.0436959
        k(   60) = (  -0.1087857  -0.3263570   0.4351426), wk =   0.0436959
        k(   61) = (  -0.0543928  -0.2719641   0.3807498), wk =   0.0436959
        k(   62) = (   0.0000000  -0.2175713   0.3263570), wk =   0.0218480
        k(   63) = (   0.4351426   0.1087857   0.0000000), wk =   0.0218480
        k(   64) = (   0.4895355   0.1631785  -0.0543928), wk =   0.0436959
        k(   65) = (  -0.1631785  -0.4895355   0.5983211), wk =   0.0436959
        k(   66) = (  -0.1087857  -0.4351426   0.5439283), wk =   0.0436959
        k(   67) = (  -0.0543928  -0.3807498   0.4895355), wk =   0.0436959
        k(   68) = (   0.0000000  -0.3263570   0.4351426), wk =   0.0218480
        k(   69) = (   0.5439283   0.1087857   0.0000000), wk =   0.0218480
        k(   70) = (  -0.1087857  -0.5439283   0.6527140), wk =   0.0436959
        k(   71) = (  -0.0543928  -0.4895355   0.5983211), wk =   0.0436959
        k(   72) = (   0.0000000  -0.4351426   0.5439283), wk =   0.0218480
        k(   73) = (  -0.0543928  -0.5983211   0.7071068), wk =   0.0218480
        k(   74) = (   0.0000000  -0.5439283   0.6527140), wk =   0.0218480
        k(   75) = (   0.4351426   0.2175713   0.0000000), wk =   0.0218480
        k(   76) = (  -0.2175713  -0.4351426   0.6527140), wk =   0.0436959
        k(   77) = (  -0.1631785  -0.3807498   0.5983211), wk =   0.0436959
        k(   78) = (  -0.1631785  -0.4895355   0.7071068), wk =   0.0218480
        k(   79) = (  -0.1087857  -0.4351426   0.6527140), wk =   0.0436959
        k(   80) = (  -0.0543928  -0.3807498   0.5983211), wk =   0.0436959
        k(   81) = (   0.0000000  -0.3263570   0.5439283), wk =   0.0218480
        k(   82) = (  -0.0543928  -0.4895355   0.7071068), wk =   0.0218480
        k(   83) = (   0.0000000  -0.4351426   0.6527140), wk =   0.0218480
        k(   84) = (  -0.0543928  -0.3807498   0.7071068), wk =   0.0218480

                       cryst. coord.
        k(    1) = (   0.0000000   0.0000000   0.0000000), wk =   0.0009103
        k(    2) = (   0.0000000   0.0000000   0.0769231), wk =   0.0072827
        k(    3) = (   0.0000000   0.0000000   0.1538462), wk =   0.0072827
        k(    4) = (   0.0000000   0.0000000   0.2307692), wk =   0.0072827
        k(    5) = (   0.0000000   0.0000000   0.3076923), wk =   0.0072827
        k(    6) = (   0.0000000   0.0000000   0.3846154), wk =   0.0072827
        k(    7) = (   0.0000000   0.0000000   0.4615385), wk =   0.0072827
        k(    8) = (   0.0000000   0.0769231   0.0769231), wk =   0.0054620
        k(    9) = (   0.0000000   0.0769231   0.1538462), wk =   0.0218480
        k(   10) = (   0.0000000   0.0769231   0.2307692), wk =   0.0218480
        k(   11) = (   0.0000000   0.0769231   0.3076923), wk =   0.0218480
        k(   12) = (   0.0000000   0.0769231   0.3846154), wk =   0.0218480
        k(   13) = (   0.0000000   0.0769231   0.4615385), wk =   0.0218480
        k(   14) = (   0.0000000   0.0769231  -0.4615385), wk =   0.0218480
        k(   15) = (   0.0000000   0.0769231  -0.3846154), wk =   0.0218480
        k(   16) = (   0.0000000   0.0769231  -0.3076923), wk =   0.0218480
        k(   17) = (   0.0000000   0.0769231  -0.2307692), wk =   0.0218480
        k(   18) = (   0.0000000   0.0769231  -0.1538462), wk =   0.0218480
        k(   19) = (   0.0000000   0.0769231  -0.0769231), wk =   0.0109240
        k(   20) = (   0.0000000   0.1538462   0.1538462), wk =   0.0054620
        k(   21) = (   0.0000000   0.1538462   0.2307692), wk =   0.0218480
        k(   22) = (   0.0000000   0.1538462   0.3076923), wk =   0.0218480
        k(   23) = (   0.0000000   0.1538462   0.3846154), wk =   0.0218480
        k(   24) = (   0.0000000   0.1538462   0.4615385), wk =   0.0218480
        k(   25) = (   0.0000000   0.1538462  -0.4615385), wk =   0.0218480
        k(   26) = (   0.0000000   0.1538462  -0.3846154), wk =   0.0218480
        k(   27) = (   0.0000000   0.1538462  -0.3076923), wk =   0.0218480
        k(   28) = (   0.0000000   0.1538462  -0.2307692), wk =   0.0218480
        k(   29) = (   0.0000000   0.1538462  -0.1538462), wk =   0.0109240
        k(   30) = (   0.0000000   0.2307692   0.2307692), wk =   0.0054620
        k(   31) = (   0.0000000   0.2307692   0.3076923), wk =   0.0218480
        k(   32) = (   0.0000000   0.2307692   0.3846154), wk =   0.0218480
        k(   33) = (   0.0000000   0.2307692   0.4615385), wk =   0.0218480
        k(   34) = (   0.0000000   0.2307692  -0.4615385), wk =   0.0218480
        k(   35) = (   0.0000000   0.2307692  -0.3846154), wk =   0.0218480
        k(   36) = (   0.0000000   0.2307692  -0.3076923), wk =   0.0218480
        k(   37) = (   0.0000000   0.2307692  -0.2307692), wk =   0.0109240
        k(   38) = (   0.0000000   0.3076923   0.3076923), wk =   0.0054620
        k(   39) = (   0.0000000   0.3076923   0.3846154), wk =   0.0218480
        k(   40) = (   0.0000000   0.3076923   0.4615385), wk =   0.0218480
        k(   41) = (   0.0000000   0.3076923  -0.4615385), wk =   0.0218480
        k(   42) = (   0.0000000   0.3076923  -0.3846154), wk =   0.0218480
        k(   43) = (   0.0000000   0.3076923  -0.3076923), wk =   0.0109240
        k(   44) = (   0.0000000   0.3846154   0.3846154), wk =   0.0054620
        k(   45) = (   0.0000000   0.3846154   0.4615385), wk =   0.0218480
        k(   46) = (   0.0000000   0.3846154  -0.4615385), wk =   0.0218480
        k(   47) = (   0.0000000   0.3846154  -0.3846154), wk =   0.0109240
        k(   48) = (   0.0000000   0.4615385   0.4615385), wk =   0.0054620
        k(   49) = (   0.0000000   0.4615385  -0.4615385), wk =   0.0109240
        k(   50) = (   0.0769231   0.1538462   0.2307692), wk =   0.0218480
        k(   51) = (   0.0769231   0.1538462   0.3076923), wk =   0.0436959
        k(   52) = (   0.0769231   0.1538462   0.3846154), wk =   0.0436959
        k(   53) = (   0.0769231   0.1538462   0.4615385), wk =   0.0436959
        k(   54) = (   0.0769231   0.1538462  -0.4615385), wk =   0.0436959
        k(   55) = (   0.0769231   0.2307692   0.3076923), wk =   0.0218480
        k(   56) = (   0.0769231   0.2307692   0.3846154), wk =   0.0436959
        k(   57) = (   0.0769231   0.2307692   0.4615385), wk =   0.0436959
        k(   58) = (   0.0769231   0.2307692  -0.4615385), wk =   0.0436959
        k(   59) = (   0.0769231   0.2307692  -0.3846154), wk =   0.0436959
        k(   60) = (   0.0769231   0.2307692  -0.3076923), wk =   0.0436959
        k(   61) = (   0.0769231   0.2307692  -0.2307692), wk =   0.0436959
        k(   62) = (   0.0769231   0.2307692  -0.1538462), wk =   0.0218480
        k(   63) = (   0.0769231   0.3076923   0.3846154), wk =   0.0218480
        k(   64) = (   0.0769231   0.3076923   0.4615385), wk =   0.0436959
        k(   65) = (   0.0769231   0.3076923  -0.4615385), wk =   0.0436959
        k(   66) = (   0.0769231   0.3076923  -0.3846154), wk =   0.0436959
        k(   67) = (   0.0769231   0.3076923  -0.3076923), wk =   0.0436959
        k(   68) = (   0.0769231   0.3076923  -0.2307692), wk =   0.0218480
        k(   69) = (   0.0769231   0.3846154   0.4615385), wk =   0.0218480
        k(   70) = (   0.0769231   0.3846154  -0.4615385), wk =   0.0436959
        k(   71) = (   0.0769231   0.3846154  -0.3846154), wk =   0.0436959
        k(   72) = (   0.0769231   0.3846154  -0.3076923), wk =   0.0218480
        k(   73) = (   0.0769231   0.4615385  -0.4615385), wk =   0.0218480
        k(   74) = (   0.0769231   0.4615385  -0.3846154), wk =   0.0218480
        k(   75) = (   0.1538462   0.3076923   0.4615385), wk =   0.0218480
        k(   76) = (   0.1538462   0.3076923  -0.4615385), wk =   0.0436959
        k(   77) = (   0.1538462   0.3076923  -0.3846154), wk =   0.0436959
        k(   78) = (   0.1538462   0.3846154  -0.4615385), wk =   0.0218480
        k(   79) = (   0.1538462   0.3846154  -0.3846154), wk =   0.0436959
        k(   80) = (   0.1538462   0.3846154  -0.3076923), wk =   0.0436959
        k(   81) = (   0.1538462   0.3846154  -0.2307692), wk =   0.0218480
        k(   82) = (   0.1538462   0.4615385  -0.3846154), wk =   0.0218480
        k(   83) = (   0.1538462   0.4615385  -0.3076923), wk =   0.0218480
        k(   84) = (   0.2307692   0.4615385  -0.3076923), wk =   0.0218480

     Dense  grid:    37309 G-vectors     FFT dimensions: (  48,  48,  48)

     Smooth grid:    13323 G-vectors     FFT dimensions: (  36,  36,  36)

     Dynamical RAM for                 wfc:       0.45 MB

     Dynamical RAM for     wfc (w. buffer):      38.43 MB

     Dynamical RAM for           str. fact:       0.57 MB

     Dynamical RAM for           local pot:       0.00 MB

     Dynamical RAM for          nlocal pot:       0.90 MB

     Dynamical RAM for                qrad:       1.52 MB

     Dynamical RAM for          rho,v,vnew:       4.24 MB

     Dynamical RAM for               rhoin:       1.41 MB

     Dynamical RAM for            rho*nmix:       9.11 MB

     Dynamical RAM for           G-vectors:       2.24 MB

     Dynamical RAM for          h,s,v(r/c):       0.06 MB

     Dynamical RAM for          <psi|beta>:       0.01 MB

     Dynamical RAM for                 psi:       0.90 MB

     Dynamical RAM for                hpsi:       0.90 MB

     Dynamical RAM for                spsi:       0.90 MB

     Dynamical RAM for      wfcinit/wfcrot:       0.91 MB

     Dynamical RAM for           addusdens:     107.03 MB

     Dynamical RAM for          addusforce:     108.46 MB

     Dynamical RAM for         addusstress:     114.43 MB

     Estimated static dynamical RAM per process >      54.67 MB

     Estimated max dynamical RAM per process >     178.21 MB

     Initial potential from superposition of free atoms

     starting charge      27.9984, renormalised to      28.0000
     Starting wfcs are   18 randomized atomic wfcs

     total cpu time spent up to now is        6.0 secs

     Self-consistent Calculation

     iteration #  1     ecut=    45.00 Ry     beta= 0.40
     Davidson diagonalization with overlap

---- Real-time Memory Report at c_bands before calling an iterative solver
           152 MiB given to the printing process from OS
             0 MiB allocation reported by mallinfo(arena+hblkhd)
           281 MiB available memory on the node where the printing process lives
------------------
     ethr =  1.00E-02,  avg # of iterations =  3.2

     Threshold (ethr) on eigenvalues was too large:
     Diagonalizing with lowered threshold

     Davidson diagonalization with overlap

---- Real-time Memory Report at c_bands before calling an iterative solver
           193 MiB given to the printing process from OS
             0 MiB allocation reported by mallinfo(arena+hblkhd)
           382 MiB available memory on the node where the printing process lives
------------------
     ethr =  1.02E-04,  avg # of iterations =  2.9

     total cpu time spent up to now is       30.0 secs

     total energy              =    -426.38125076 Ry
     estimated scf accuracy    <       0.02998379 Ry

     iteration #  2     ecut=    45.00 Ry     beta= 0.40
     Davidson diagonalization with overlap

---- Real-time Memory Report at c_bands before calling an iterative solver
           199 MiB given to the printing process from OS
             0 MiB allocation reported by mallinfo(arena+hblkhd)
           358 MiB available memory on the node where the printing process lives
------------------
     ethr =  1.07E-04,  avg # of iterations =  1.0

     total cpu time spent up to now is       40.1 secs

     total energy              =    -426.37932921 Ry
     estimated scf accuracy    <       0.00883229 Ry

     iteration #  3     ecut=    45.00 Ry     beta= 0.40
     Davidson diagonalization with overlap

---- Real-time Memory Report at c_bands before calling an iterative solver
           200 MiB given to the printing process from OS
             0 MiB allocation reported by mallinfo(arena+hblkhd)
           340 MiB available memory on the node where the printing process lives
------------------
     ethr =  3.15E-05,  avg # of iterations =  1.7

     total cpu time spent up to now is       52.3 secs

     total energy              =    -426.37972718 Ry
     estimated scf accuracy    <       0.00008606 Ry

     iteration #  4     ecut=    45.00 Ry     beta= 0.40
     Davidson diagonalization with overlap

---- Real-time Memory Report at c_bands before calling an iterative solver
           200 MiB given to the printing process from OS
             0 MiB allocation reported by mallinfo(arena+hblkhd)
           373 MiB available memory on the node where the printing process lives
------------------
     ethr =  3.07E-07,  avg # of iterations =  2.9

     total cpu time spent up to now is       67.3 secs

     total energy              =    -426.37974592 Ry
     estimated scf accuracy    <       0.00000486 Ry

     iteration #  5     ecut=    45.00 Ry     beta= 0.40
     Davidson diagonalization with overlap

---- Real-time Memory Report at c_bands before calling an iterative solver
           200 MiB given to the printing process from OS
             0 MiB allocation reported by mallinfo(arena+hblkhd)
           373 MiB available memory on the node where the printing process lives
------------------
     ethr =  1.73E-08,  avg # of iterations =  2.0

     total cpu time spent up to now is       82.2 secs

     total energy              =    -426.37974697 Ry
     estimated scf accuracy    <       0.00000040 Ry

     iteration #  6     ecut=    45.00 Ry     beta= 0.40
     Davidson diagonalization with overlap

---- Real-time Memory Report at c_bands before calling an iterative solver
           201 MiB given to the printing process from OS
             0 MiB allocation reported by mallinfo(arena+hblkhd)
           350 MiB available memory on the node where the printing process lives
------------------
     ethr =  1.42E-09,  avg # of iterations =  2.0

     total cpu time spent up to now is       95.7 secs

     total energy              =    -426.37974702 Ry
     estimated scf accuracy    <       0.00000004 Ry

     iteration #  7     ecut=    45.00 Ry     beta= 0.40
     Davidson diagonalization with overlap

---- Real-time Memory Report at c_bands before calling an iterative solver
           201 MiB given to the printing process from OS
             0 MiB allocation reported by mallinfo(arena+hblkhd)
           334 MiB available memory on the node where the printing process lives
------------------
     ethr =  1.56E-10,  avg # of iterations =  2.1

     total cpu time spent up to now is      110.7 secs

     total energy              =    -426.37974704 Ry
     estimated scf accuracy    <          3.1E-09 Ry

     iteration #  8     ecut=    45.00 Ry     beta= 0.40
     Davidson diagonalization with overlap

---- Real-time Memory Report at c_bands before calling an iterative solver
           202 MiB given to the printing process from OS
             0 MiB allocation reported by mallinfo(arena+hblkhd)
           294 MiB available memory on the node where the printing process lives
------------------
     ethr =  1.12E-11,  avg # of iterations =  2.0

     total cpu time spent up to now is      125.4 secs

     total energy              =    -426.37974704 Ry
     estimated scf accuracy    <          5.6E-10 Ry

     iteration #  9     ecut=    45.00 Ry     beta= 0.40
     Davidson diagonalization with overlap

---- Real-time Memory Report at c_bands before calling an iterative solver
           202 MiB given to the printing process from OS
             0 MiB allocation reported by mallinfo(arena+hblkhd)
           371 MiB available memory on the node where the printing process lives
------------------
     ethr =  1.98E-12,  avg # of iterations =  2.0

     total cpu time spent up to now is      139.3 secs

     End of self-consistent calculation

          k = 0.0000 0.0000 0.0000 (  1639 PWs)   bands (ev):

   -17.1104 -17.1104 -17.1104 -17.0783 -17.0783 -16.8953 -16.8953 -16.8953
   -16.8862 -16.8862  -4.7592   7.1195   7.6257   7.6257   7.6257  10.1296
    10.1296  10.1296

     occupation numbers 
     1.0000   1.0000   1.0000   1.0000   1.0000   1.0000   1.0000   1.0000
     1.0000   1.0000   1.0000   1.0672   0.3089   0.3089   0.3089   0.0000
     0.0000   0.0000

          k = 0.0544 0.0544-0.0544 (  1654 PWs)   bands (ev):

   -17.1137 -17.1137 -17.1096 -17.0740 -17.0740 -16.9012 -16.9012 -16.8963
   -16.8810 -16.8810  -4.6904   6.0305   7.4915   7.4915   8.2652  10.3098
    10.3098  10.3988

     occupation numbers 
     1.0000   1.0000   1.0000   1.0000   1.0000   1.0000   1.0000   1.0000
     1.0000   1.0000   1.0000   1.0000   0.6587   0.6587   0.0000   0.0000
     0.0000   0.0000

          k = 0.1088 0.1088-0.1088 (  1654 PWs)   bands (ev):

   -17.1197 -17.1197 -17.1072 -17.0651 -17.0651 -16.9098 -16.9098 -16.8991
   -16.8740 -16.8740  -4.4864   4.6340   7.1923   7.1923   8.3575  10.7110
    10.7110  11.3150

     occupation numbers 
     1.0000   1.0000   1.0000   1.0000   1.0000   1.0000   1.0000   1.0000
     1.0000   1.0000   1.0000   1.0000   1.0830   1.0830   0.0000   0.0000
     0.0000   0.0000

          k = 0.1632 0.1632-0.1632 (  1642 PWs)   bands (ev):

   -17.1251 -17.1251 -17.1038 -17.0558 -17.0558 -16.9174 -16.9174 -16.9031
   -16.8684 -16.8684  -4.1556   3.2726   6.8711   6.8711   8.1281  11.0900
    11.0900  12.5565

     occupation numbers 
     1.0000   1.0000   1.0000   1.0000   1.0000   1.0000   1.0000   1.0000
     1.0000   1.0000   1.0000   1.0000   1.0066   1.0066   0.0003   0.0000
     0.0000   0.0000

          k = 0.2176 0.2176-0.2176 (  1637 PWs)   bands (ev):

   -17.1288 -17.1288 -17.1000 -17.0486 -17.0486 -16.9228 -16.9228 -16.9074
   -16.8645 -16.8645  -3.7193   2.0309   6.6005   6.6005   7.8777  11.2876
    11.2876  13.8831

     occupation numbers 
     1.0000   1.0000   1.0000   1.0000   1.0000   1.0000   1.0000   1.0000
     1.0000   1.0000   1.0000   1.0000   1.0001   1.0001   0.0231   0.0000
     0.0000   0.0000

          k = 0.2720 0.2720-0.2720 (  1640 PWs)   bands (ev):

   -17.1309 -17.1309 -17.0968 -17.0442 -17.0442 -16.9259 -16.9259 -16.9110
   -16.8622 -16.8622  -3.2339   0.9959   6.4105   6.4105   7.6919  11.3218
    11.3218  14.6484

     occupation numbers 
     1.0000   1.0000   1.0000   1.0000   1.0000   1.0000   1.0000   1.0000
     1.0000   1.0000   1.0000   1.0000   1.0000   1.0000   0.1821   0.0000
     0.0000   0.0000

          k = 0.3264 0.3264-0.3264 (  1664 PWs)   bands (ev):

   -17.1318 -17.1318 -17.0951 -17.0422 -17.0422 -16.9271 -16.9271 -16.9131
   -16.8612 -16.8612  -2.8542   0.3379   6.3134   6.3134   7.5955  11.3030
    11.3030  14.5776

     occupation numbers 
     1.0000   1.0000   1.0000   1.0000   1.0000   1.0000   1.0000   1.0000
     1.0000   1.0000   1.0000   1.0000   1.0000   1.0000   0.3796   0.0000
     0.0000   0.0000

          k = 0.1088 0.0000 0.0000 (  1659 PWs)   bands (ev):

   -17.1138 -17.1125 -17.1125 -17.0754 -17.0696 -16.9109 -16.8924 -16.8924
   -16.8889 -16.8771  -4.6674   5.9393   7.2450   7.2450   8.7684   9.8371
    10.6258  10.6258

     occupation numbers 
     1.0000   1.0000   1.0000   1.0000   1.0000   1.0000   1.0000   1.0000
     1.0000   1.0000   1.0000   1.0000   1.0765   1.0765   0.0000   0.0000
     0.0000   0.0000

          k = 0.1632 0.0544-0.0544 (  1643 PWs)   bands (ev):

   -17.1200 -17.1165 -17.1104 -17.0694 -17.0602 -16.9215 -16.8996 -16.8921
   -16.8822 -16.8717  -4.5080   4.9039   6.9021   6.9572   9.1027   9.8730
    11.1081  11.3099

     occupation numbers 
     1.0000   1.0000   1.0000   1.0000   1.0000   1.0000   1.0000   1.0000
     1.0000   1.0000   1.0000   1.0000   1.0098   1.0186   0.0000   0.0000
     0.0000   0.0000

          k = 0.2176 0.1088-0.1088 (  1638 PWs)   bands (ev):

   -17.1268 -17.1218 -17.1059 -17.0609 -17.0501 -16.9305 -16.9082 -16.8961
   -16.8748 -16.8656  -4.2181   3.6314   6.5799   6.5982   8.9417  10.3369
    11.5411  12.2317

     occupation numbers 
     1.0000   1.0000   1.0000   1.0000   1.0000   1.0000   1.0000   1.0000
     1.0000   1.0000   1.0000   1.0000   1.0000   1.0001   0.0000   0.0000
     0.0000   0.0000

          k = 0.2720 0.1632-0.1632 (  1642 PWs)   bands (ev):

   -17.1321 -17.1263 -17.1003 -17.0527 -17.0422 -16.9364 -16.9157 -16.9023
   -16.8690 -16.8606  -3.8133   2.3914   6.2325   6.3336   8.6837  10.7811
    11.7577  13.1092

     occupation numbers 
     1.0000   1.0000   1.0000   1.0000   1.0000   1.0000   1.0000   1.0000
     1.0000   1.0000   1.0000   1.0000   1.0000   1.0000   0.0000   0.0000
     0.0000   0.0000

          k = 0.3264 0.2176-0.2176 (  1640 PWs)   bands (ev):

   -17.1354 -17.1296 -17.0946 -17.0461 -17.0379 -16.9380 -16.9219 -16.9091
   -16.8646 -16.8572  -3.3337   1.2994   5.9274   6.1860   8.4628  11.0052
    11.7490  14.0134

     occupation numbers 
     1.0000   1.0000   1.0000   1.0000   1.0000   1.0000   1.0000   1.0000
     1.0000   1.0000   1.0000   1.0000   1.0000   1.0000   0.0000   0.0000
     0.0000   0.0000

          k = 0.3807 0.2720-0.2720 (  1645 PWs)   bands (ev):

   -17.1369 -17.1319 -17.0903 -17.0412 -17.0375 -16.9355 -16.9270 -16.9151
   -16.8613 -16.8558  -2.8903   0.4981   5.7111   6.1451   8.3188  11.1000
    11.6347  14.6767

     occupation numbers 
     1.0000   1.0000   1.0000   1.0000   1.0000   1.0000   1.0000   1.0000
     1.0000   1.0000   1.0000   1.0000   1.0000   1.0000   0.0000   0.0000
     0.0000   0.0000

          k =-0.2720-0.3807 0.3807 (  1652 PWs)   bands (ev):

   -17.1367 -17.1333 -17.0886 -17.0399 -17.0380 -16.9312 -16.9301 -16.9187
   -16.8592 -16.8565  -2.7384   0.2563   5.5968   6.2100   8.2659  11.1926
    11.5132  14.8262

     occupation numbers 
     1.0000   1.0000   1.0000   1.0000   1.0000   1.0000   1.0000   1.0000
     1.0000   1.0000   1.0000   1.0000   1.0000   1.0000   0.0000   0.0000
     0.0000   0.0000

          k =-0.2176-0.3264 0.3264 (  1640 PWs)   bands (ev):

   -17.1348 -17.1337 -17.0901 -17.0438 -17.0371 -16.9336 -16.9254 -16.9171
   -16.8591 -16.8583  -3.0226   0.7215   5.5929   6.3744   8.3072  11.3193
    11.4099  14.7247

     occupation numbers 
     1.0000   1.0000   1.0000   1.0000   1.0000   1.0000   1.0000   1.0000
     1.0000   1.0000   1.0000   1.0000   1.0000   1.0000   0.0000   0.0000
     0.0000   0.0000

          k =-0.1632-0.2720 0.2720 (  1643 PWs)   bands (ev):

   -17.1328 -17.1314 -17.0943 -17.0488 -17.0395 -16.9331 -16.9231 -16.9095
   -16.8637 -16.8591  -3.4986   1.6425   5.7063   6.6249   8.4369  11.2782
    11.4215  13.9269

     occupation numbers 
     1.0000   1.0000   1.0000   1.0000   1.0000   1.0000   1.0000   1.0000
     1.0000   1.0000   1.0000   1.0000   1.0000   1.0001   0.0000   0.0000
     0.0000   0.0000

          k =-0.1088-0.2176 0.2176 (  1636 PWs)   bands (ev):

   -17.1301 -17.1265 -17.1001 -17.0552 -17.0460 -16.9288 -16.9194 -16.9006
   -16.8701 -16.8617  -3.9603   2.7922   5.9435   6.9371   8.6315  11.0292
    11.3144  12.9010

     occupation numbers 
     1.0000   1.0000   1.0000   1.0000   1.0000   1.0000   1.0000   1.0000
     1.0000   1.0000   1.0000   1.0000   1.0000   1.0149   0.0000   0.0000
     0.0000   0.0000

          k =-0.0544-0.1632 0.1632 (  1641 PWs)   bands (ev):

   -17.1254 -17.1204 -17.1057 -17.0630 -17.0554 -16.9212 -16.9135 -16.8926
   -16.8781 -16.8664  -4.3292   4.0417   6.3167   7.2614   8.8108  10.6562
    10.8382  12.0396

     occupation numbers 
     1.0000   1.0000   1.0000   1.0000   1.0000   1.0000   1.0000   1.0000
     1.0000   1.0000   1.0000   1.0000   1.0000   1.0696   0.0000   0.0000
     0.0000   0.0000

          k = 0.0000-0.1088 0.1088 (  1651 PWs)   bands (ev):

   -17.1192 -17.1146 -17.1096 -17.0706 -17.0659 -16.9115 -16.9061 -16.8894
   -16.8845 -16.8729  -4.5764   5.2296   6.8602   7.4941   8.7131  10.3361
    10.3808  11.1778

     occupation numbers 
     1.0000   1.0000   1.0000   1.0000   1.0000   1.0000   1.0000   1.0000
     1.0000   1.0000   1.0000   1.0000   1.0057   0.6517   0.0000   0.0000
     0.0000   0.0000

          k = 0.2176 0.0000 0.0000 (  1647 PWs)   bands (ev):

   -17.1178 -17.1178 -17.1174 -17.0668 -17.0502 -16.9353 -16.8968 -16.8845
   -16.8845 -16.8714  -4.3931   4.5581   6.5382   6.5382   9.2614   9.8914
    11.6739  11.6739

     occupation numbers 
     1.0000   1.0000   1.0000   1.0000   1.0000   1.0000   1.0000   1.0000
     1.0000   1.0000   1.0000   1.0000   1.0000   1.0000   0.0000   0.0000
     0.0000   0.0000

          k = 0.2720 0.0544-0.0544 (  1645 PWs)   bands (ev):

   -17.1261 -17.1219 -17.1117 -17.0595 -17.0389 -16.9475 -16.9048 -16.8853
   -16.8775 -16.8670  -4.1456   3.6666   6.1384   6.2071   9.2457  10.0760
    12.2102  12.2502

     occupation numbers 
     1.0000   1.0000   1.0000   1.0000   1.0000   1.0000   1.0000   1.0000
     1.0000   1.0000   1.0000   1.0000   1.0000   1.0000   0.0000   0.0000
     0.0000   0.0000

          k = 0.3264 0.1088-0.1088 (  1644 PWs)   bands (ev):

   -17.1339 -17.1264 -17.1033 -17.0509 -17.0294 -16.9562 -16.9139 -16.8934
   -16.8704 -16.8594  -3.7765   2.5922   5.6660   5.9609   9.3333  10.3535
    12.4311  12.5267

     occupation numbers 
     1.0000   1.0000   1.0000   1.0000   1.0000   1.0000   1.0000   1.0000
     1.0000   1.0000   1.0000   1.0000   1.0000   1.0000   0.0000   0.0000
     0.0000   0.0000

          k = 0.3807 0.1632-0.1632 (  1643 PWs)   bands (ev):

   -17.1400 -17.1303 -17.0936 -17.0426 -17.0241 -16.9598 -16.9227 -16.9039
   -16.8644 -16.8528  -3.3142   1.5440   5.2301   5.8231   9.2075  10.8521
    12.5553  12.6989

     occupation numbers 
     1.0000   1.0000   1.0000   1.0000   1.0000   1.0000   1.0000   1.0000
     1.0000   1.0000   1.0000   1.0000   1.0000   1.0000   0.0000   0.0000
     0.0000   0.0000

          k = 0.4351 0.2176-0.2176 (  1642 PWs)   bands (ev):

   -17.1440 -17.1333 -17.0846 -17.0353 -17.0243 -16.9570 -16.9310 -16.9142
   -16.8596 -16.8486  -2.8358   0.6772   4.8898   5.8023   9.0762  11.1088
    12.4044  13.5103

     occupation numbers 
     1.0000   1.0000   1.0000   1.0000   1.0000   1.0000   1.0000   1.0000
     1.0000   1.0000   1.0000   1.0000   1.0000   1.0000   0.0000   0.0000
     0.0000   0.0000

          k =-0.2176-0.4351 0.4351 (  1647 PWs)   bands (ev):

   -17.1454 -17.1356 -17.0785 -17.0295 -17.0294 -16.9488 -16.9384 -16.9221
   -16.8562 -16.8473  -2.5511   0.2358   4.6689   5.8978   9.0190  11.2222
    12.1994  14.5847

     occupation numbers 
     1.0000   1.0000   1.0000   1.0000   1.0000   1.0000   1.0000   1.0000
     1.0000   1.0000   1.0000   1.0000   1.0000   1.0000   0.0000   0.0000
     0.0000   0.0000

          k =-0.1632-0.3807 0.3807 (  1642 PWs)   bands (ev):

   -17.1440 -17.1369 -17.0771 -17.0370 -17.0262 -16.9436 -16.9367 -16.9265
   -16.8544 -16.8493  -2.7122   0.4818   4.5834   6.1010   9.0483  11.3576
    11.9880  14.7666

     occupation numbers 
     1.0000   1.0000   1.0000   1.0000   1.0000   1.0000   1.0000   1.0000
     1.0000   1.0000   1.0000   1.0000   1.0000   1.0000   0.0000   0.0000
     0.0000   0.0000

          k =-0.1088-0.3264 0.3264 (  1641 PWs)   bands (ev):

   -17.1401 -17.1368 -17.0813 -17.0445 -17.0273 -16.9447 -16.9278 -16.9220
   -16.8546 -16.8543  -3.1611   1.2458   4.6542   6.3933   9.1490  11.5233
    11.7388  13.6881

     occupation numbers 
     1.0000   1.0000   1.0000   1.0000   1.0000   1.0000   1.0000   1.0000
     1.0000   1.0000   1.0000   1.0000   1.0000   1.0000   0.0000   0.0000
     0.0000   0.0000

          k =-0.0544-0.2720 0.2720 (  1645 PWs)   bands (ev):

   -17.1349 -17.1339 -17.0898 -17.0512 -17.0338 -16.9404 -16.9254 -16.9077
   -16.8630 -16.8563  -3.6401   2.2265   4.9192   6.7393   9.2689  11.3818
    11.5104  12.7897

     occupation numbers 
     1.0000   1.0000   1.0000   1.0000   1.0000   1.0000   1.0000   1.0000
     1.0000   1.0000   1.0000   1.0000   1.0000   1.0009   0.0000   0.0000
     0.0000   0.0000

          k = 0.0000-0.2176 0.2176 (  1632 PWs)   bands (ev):

   -17.1310 -17.1264 -17.0992 -17.0574 -17.0440 -16.9319 -16.9204 -16.8954
   -16.8731 -16.8603  -4.0421   3.2167   5.4531   7.0698   9.2438  10.9506
    11.0647  12.4895

     occupation numbers 
     1.0000   1.0000   1.0000   1.0000   1.0000   1.0000   1.0000   1.0000
     1.0000   1.0000   1.0000   1.0000   1.0000   1.0503   0.0000   0.0000
     0.0000   0.0000

          k = 0.3264 0.0000 0.0000 (  1636 PWs)   bands (ev):

   -17.1247 -17.1247 -17.1161 -17.0532 -17.0257 -16.9634 -16.9095 -16.8738
   -16.8738 -16.8731  -3.9399   3.2046   5.8617   5.8617   8.7251  10.2409
    12.9036  12.9036

     occupation numbers 
     1.0000   1.0000   1.0000   1.0000   1.0000   1.0000   1.0000   1.0000
     1.0000   1.0000   1.0000   1.0000   1.0000   1.0000   0.0000   0.0000
     0.0000   0.0000

          k = 0.3807 0.0544-0.0544 (  1650 PWs)   bands (ev):

   -17.1321 -17.1286 -17.1084 -17.0444 -17.0137 -16.9762 -16.9182 -16.8841
   -16.8677 -16.8624  -3.6087   2.4244   5.4322   5.6007   8.7834  10.1452
    13.0476  13.4095

     occupation numbers 
     1.0000   1.0000   1.0000   1.0000   1.0000   1.0000   1.0000   1.0000
     1.0000   1.0000   1.0000   1.0000   1.0000   1.0000   0.0000   0.0000
     0.0000   0.0000

          k = 0.4351 0.1088-0.1088 (  1649 PWs)   bands (ev):

   -17.1405 -17.1323 -17.0960 -17.0351 -17.0057 -16.9836 -16.9280 -16.8978
   -16.8618 -16.8525  -3.1715   1.5481   4.8736   5.4505   8.9983  10.4672
    12.8072  13.5732

     occupation numbers 
     1.0000   1.0000   1.0000   1.0000   1.0000   1.0000   1.0000   1.0000
     1.0000   1.0000   1.0000   1.0000   1.0000   1.0000   0.0000   0.0000
     0.0000   0.0000

          k = 0.4895 0.1632-0.1632 (  1641 PWs)   bands (ev):

   -17.1472 -17.1354 -17.0830 -17.0261 -17.0048 -16.9829 -16.9381 -16.9117
   -16.8569 -16.8450  -2.6807   0.7296   4.3723   5.4223   9.0290  11.3292
    12.6761  13.4540

     occupation numbers 
     1.0000   1.0000   1.0000   1.0000   1.0000   1.0000   1.0000   1.0000
     1.0000   1.0000   1.0000   1.0000   1.0000   1.0000   0.0000   0.0000
     0.0000   0.0000

          k =-0.1632-0.4895 0.4895 (  1649 PWs)   bands (ev):

   -17.1511 -17.1379 -17.0728 -17.0182 -17.0101 -16.9755 -16.9477 -16.9227
   -16.8532 -16.8408  -2.2944   0.1772   4.0119   5.5171   9.0587  11.9822
    13.1720  13.2048

     occupation numbers 
     1.0000   1.0000   1.0000   1.0000   1.0000   1.0000   1.0000   1.0000
     1.0000   1.0000   1.0000   1.0000   1.0000   1.0000   0.0000   0.0000
     0.0000   0.0000

          k =-0.1088-0.4351 0.4351 (  1647 PWs)   bands (ev):

   -17.1516 -17.1394 -17.0678 -17.0209 -17.0132 -16.9622 -16.9548 -16.9284
   -16.8512 -16.8406  -2.3199   0.2154   3.8316   5.7269   9.1660  12.1075
    12.8970  14.2979

     occupation numbers 
     1.0000   1.0000   1.0000   1.0000   1.0000   1.0000   1.0000   1.0000
     1.0000   1.0000   1.0000   1.0000   1.0000   1.0000   0.0000   0.0000
     0.0000   0.0000

          k =-0.0544-0.3807 0.3807 (  1638 PWs)   bands (ev):

   -17.1485 -17.1396 -17.0690 -17.0342 -17.0141 -16.9561 -16.9450 -16.9291
   -16.8509 -16.8447  -2.7268   0.7937   3.8743   6.0324   9.3324  12.2158
    12.4979  13.5056

     occupation numbers 
     1.0000   1.0000   1.0000   1.0000   1.0000   1.0000   1.0000   1.0000
     1.0000   1.0000   1.0000   1.0000   1.0000   1.0000   0.0000   0.0000
     0.0000   0.0000

          k = 0.0000-0.3264 0.3264 (  1648 PWs)   bands (ev):

   -17.1422 -17.1382 -17.0773 -17.0447 -17.0220 -16.9505 -16.9312 -16.9222
   -16.8527 -16.8526  -3.2132   1.5409   4.2122   6.3951   9.4545  11.9554
    12.1551  12.6058

     occupation numbers 
     1.0000   1.0000   1.0000   1.0000   1.0000   1.0000   1.0000   1.0000
     1.0000   1.0000   1.0000   1.0000   1.0000   1.0000   0.0000   0.0000
     0.0000   0.0000

          k = 0.4351 0.0000 0.0000 (  1652 PWs)   bands (ev):

   -17.1317 -17.1317 -17.1088 -17.0353 -16.9986 -16.9935 -16.9263 -16.8820
   -16.8630 -16.8630  -3.3144   1.8943   5.3178   5.3178   8.3494   9.7306
    14.1942  14.1943

     occupation numbers 
     1.0000   1.0000   1.0000   1.0000   1.0000   1.0000   1.0000   1.0000
     1.0000   1.0000   1.0000   1.0000   1.0000   1.0000   0.0000   0.0000
     0.0000   0.0000

          k = 0.4895 0.0544-0.0544 (  1649 PWs)   bands (ev):

   -17.1379 -17.1348 -17.0986 -17.0252 -17.0059 -16.9865 -16.9363 -16.8937
   -16.8581 -16.8548  -2.9065   1.2036   4.9077   5.1442   8.4839   9.5805
    14.2016  14.6303

     occupation numbers 
     1.0000   1.0000   1.0000   1.0000   1.0000   1.0000   1.0000   1.0000
     1.0000   1.0000   1.0000   1.0000   1.0000   1.0000   0.0000   0.0000
     0.0000   0.0000

          k = 0.5439 0.1088-0.1088 (  1651 PWs)   bands (ev):

   -17.1459 -17.1374 -17.0834 -17.0151 -17.0117 -16.9799 -16.9472 -16.9098
   -16.8539 -16.8457  -2.4195   0.5015   4.3177   5.0939   8.6897  10.1142
    13.9207  14.6407

     occupation numbers 
     1.0000   1.0000   1.0000   1.0000   1.0000   1.0000   1.0000   1.0000
     1.0000   1.0000   1.0000   1.0000   1.0000   1.0000   0.0000   0.0000
     0.0000   0.0000

          k =-0.1088-0.5439 0.5439 (  1652 PWs)   bands (ev):

   -17.1522 -17.1395 -17.0702 -17.0079 -17.0057 -16.9820 -16.9580 -16.9236
   -16.8508 -16.8390  -1.9646  -0.0629   3.8025   5.1701   8.7774  11.2535
    13.6874  14.3818

     occupation numbers 
     1.0000   1.0000   1.0000   1.0000   1.0000   1.0000   1.0000   1.0000
     1.0000   1.0000   1.0000   1.0000   1.0000   1.0000   0.0000   0.0000
     0.0000   0.0000

          k =-0.0544-0.4895 0.4895 (  1652 PWs)   bands (ev):

   -17.1551 -17.1408 -17.0637 -16.9996 -16.9985 -16.9894 -16.9661 -16.9301
   -16.8492 -16.8362  -1.8719  -0.1623   3.4964   5.3667   8.9260  12.6174
    13.5663  13.9516

     occupation numbers 
     1.0000   1.0000   1.0000   1.0000   1.0000   1.0000   1.0000   1.0000
     1.0000   1.0000   1.0000   1.0000   1.0000   1.0000   0.0000   0.0000
     0.0000   0.0000

          k = 0.0000-0.4351 0.4351 (  1638 PWs)   bands (ev):

   -17.1539 -17.1409 -17.0634 -17.0164 -17.0029 -16.9688 -16.9651 -16.9309
   -16.8492 -16.8381  -2.2442   0.2648   3.4919   5.6663   9.1482  13.2786
    13.3113  13.4496

     occupation numbers 
     1.0000   1.0000   1.0000   1.0000   1.0000   1.0000   1.0000   1.0000
     1.0000   1.0000   1.0000   1.0000   1.0000   1.0000   0.0000   0.0000
     0.0000   0.0000

          k = 0.5439 0.0000 0.0000 (  1652 PWs)   bands (ev):

   -17.1371 -17.1371 -17.0953 -17.0234 -17.0144 -16.9705 -16.9463 -16.8974
   -16.8544 -16.8544  -2.5266   0.6432   4.9424   4.9424   8.1799   9.0557
    15.4649  15.4649

     occupation numbers 
     1.0000   1.0000   1.0000   1.0000   1.0000   1.0000   1.0000   1.0000
     1.0000   1.0000   1.0000   1.0000   1.0000   1.0000   0.0001   0.0000
     0.0000   0.0000

          k = 0.5983 0.0544-0.0544 (  1646 PWs)   bands (ev):

   -17.1419 -17.1389 -17.0825 -17.0345 -17.0034 -16.9594 -16.9574 -16.9108
   -16.8513 -16.8487  -2.0528   0.0310   4.5874   4.8629   8.3761   9.0357
    15.4589  15.7727

     occupation numbers 
     1.0000   1.0000   1.0000   1.0000   1.0000   1.0000   1.0000   1.0000
     1.0000   1.0000   1.0000   1.0000   1.0000   1.0000   0.0000   0.0000
     0.0000   0.0000

          k =-0.0544-0.5983 0.5983 (  1656 PWs)   bands (ev):

   -17.1488 -17.1403 -17.0676 -17.0350 -16.9929 -16.9689 -16.9574 -16.9261
   -16.8493 -16.8417  -1.5578  -0.5112   4.0349   4.9114   8.5256   9.8619
    15.1445  15.5495

     occupation numbers 
     1.0000   1.0000   1.0000   1.0000   1.0000   1.0000   1.0000   1.0000
     1.0000   1.0000   1.0000   1.0000   1.0000   1.0000   0.0000   0.0000
     0.0000   0.0000

          k = 0.0000-0.5439 0.5439 (  1654 PWs)   bands (ev):

   -17.1540 -17.1410 -17.0626 -17.0179 -16.9887 -16.9748 -16.9727 -16.9311
   -16.8486 -16.8369  -1.4568  -0.5912   3.6040   5.0842   8.6809  11.1726
    14.6460  14.9156

     occupation numbers 
     1.0000   1.0000   1.0000   1.0000   1.0000   1.0000   1.0000   1.0000
     1.0000   1.0000   1.0000   1.0000   1.0000   1.0000   0.0000   0.0000
     0.0000   0.0000

          k = 0.6527 0.0000 0.0000 (  1652 PWs)   bands (ev):

   -17.1400 -17.1400 -17.0758 -17.0514 -16.9917 -16.9686 -16.9432 -16.9183
   -16.8496 -16.8496  -1.5911  -0.5268   4.7514   4.7514   8.2382   8.5335
    16.4791  16.4792

     occupation numbers 
     1.0000   1.0000   1.0000   1.0000   1.0000   1.0000   1.0000   1.0000
     1.0000   1.0000   1.0000   1.0000   1.0000   1.0000   0.0000   0.0000
     0.0000   0.0000

          k = 0.0000-0.6527 0.6527 (  1648 PWs)   bands (ev):

   -17.1433 -17.1405 -17.0639 -17.0574 -16.9810 -16.9795 -16.9365 -16.9304
   -16.8489 -16.8464  -1.1096  -1.0200   4.4799   4.7680   8.3939   8.7875
    16.2419  16.3793

     occupation numbers 
     1.0000   1.0000   1.0000   1.0000   1.0000   1.0000   1.0000   1.0000
     1.0000   1.0000   1.0000   1.0000   1.0000   1.0000   0.0000   0.0000
     0.0000   0.0000

          k = 0.2176 0.1088 0.0000 (  1647 PWs)   bands (ev):

   -17.1253 -17.1202 -17.1084 -17.0637 -17.0498 -16.9330 -16.9058 -16.8876
   -16.8813 -16.8665  -4.3048   4.0940   6.1532   6.8878   9.5026   9.8131
    11.4667  12.0320

     occupation numbers 
     1.0000   1.0000   1.0000   1.0000   1.0000   1.0000   1.0000   1.0000
     1.0000   1.0000   1.0000   1.0000   1.0000   1.0082   0.0000   0.0000
     0.0000   0.0000

          k = 0.2720 0.1632-0.0544 (  1647 PWs)   bands (ev):

   -17.1312 -17.1263 -17.1015 -17.0560 -17.0395 -16.9423 -16.9135 -16.8956
   -16.8720 -16.8608  -3.9752   3.0330   5.5928   6.6452   9.4337  10.2852
    11.9130  12.4466

     occupation numbers 
     1.0000   1.0000   1.0000   1.0000   1.0000   1.0000   1.0000   1.0000
     1.0000   1.0000   1.0000   1.0000   1.0000   1.0002   0.0000   0.0000
     0.0000   0.0000

          k = 0.3264 0.2176-0.1088 (  1643 PWs)   bands (ev):

   -17.1365 -17.1311 -17.0931 -17.0485 -17.0318 -16.9478 -16.9200 -16.9066
   -16.8642 -16.8561  -3.5398   1.9343   5.2327   6.3502   9.2310  10.7822
    12.0956  12.9330

     occupation numbers 
     1.0000   1.0000   1.0000   1.0000   1.0000   1.0000   1.0000   1.0000
     1.0000   1.0000   1.0000   1.0000   1.0000   1.0000   0.0000   0.0000
     0.0000   0.0000

          k = 0.3807 0.2720-0.1632 (  1638 PWs)   bands (ev):

   -17.1405 -17.1340 -17.0855 -17.0418 -17.0287 -16.9482 -16.9259 -16.9170
   -16.8591 -16.8524  -3.0530   0.9659   5.0196   6.1101   9.0634  10.9829
    12.0868  13.7996

     occupation numbers 
     1.0000   1.0000   1.0000   1.0000   1.0000   1.0000   1.0000   1.0000
     1.0000   1.0000   1.0000   1.0000   1.0000   1.0000   0.0000   0.0000
     0.0000   0.0000

          k =-0.2720-0.3807 0.4895 (  1646 PWs)   bands (ev):

   -17.1426 -17.1353 -17.0810 -17.0362 -17.0299 -16.9440 -16.9332 -16.9223
   -16.8569 -16.8502  -2.6684   0.3310   4.9211   5.9780   8.9729  11.0084
    12.0563  14.7397

     occupation numbers 
     1.0000   1.0000   1.0000   1.0000   1.0000   1.0000   1.0000   1.0000
     1.0000   1.0000   1.0000   1.0000   1.0000   1.0000   0.0000   0.0000
     0.0000   0.0000

          k = 0.3264 0.1088 0.0000 (  1647 PWs)   bands (ev):

   -17.1305 -17.1275 -17.1065 -17.0520 -17.0272 -16.9600 -16.9121 -16.8886
   -16.8706 -16.8626  -3.8569   2.9149   5.4895   6.0771   9.2874  10.1920
    12.4104  12.7697

     occupation numbers 
     1.0000   1.0000   1.0000   1.0000   1.0000   1.0000   1.0000   1.0000
     1.0000   1.0000   1.0000   1.0000   1.0000   1.0000   0.0000   0.0000
     0.0000   0.0000

          k = 0.3807 0.1632-0.0544 (  1648 PWs)   bands (ev):

   -17.1374 -17.1325 -17.0959 -17.0435 -17.0177 -16.9688 -16.9210 -16.8999
   -16.8627 -16.8556  -3.4535   2.0112   4.9535   5.8357   9.5197  10.4410
    12.2419  13.1921

     occupation numbers 
     1.0000   1.0000   1.0000   1.0000   1.0000   1.0000   1.0000   1.0000
     1.0000   1.0000   1.0000   1.0000   1.0000   1.0000   0.0000   0.0000
     0.0000   0.0000

          k = 0.4351 0.2176-0.1088 (  1641 PWs)   bands (ev):

   -17.1440 -17.1357 -17.0842 -17.0353 -17.0130 -16.9715 -16.9301 -16.9125
   -16.8574 -16.8486  -2.9726   1.1101   4.5609   5.6284   9.5046  11.0121
    12.2999  13.3269

     occupation numbers 
     1.0000   1.0000   1.0000   1.0000   1.0000   1.0000   1.0000   1.0000
     1.0000   1.0000   1.0000   1.0000   1.0000   1.0000   0.0000   0.0000
     0.0000   0.0000

          k =-0.2176-0.4351 0.5439 (  1643 PWs)   bands (ev):

   -17.1483 -17.1378 -17.0747 -17.0279 -17.0143 -16.9676 -16.9397 -16.9224
   -16.8540 -16.8440  -2.5220   0.3984   4.2930   5.5474   9.4689  11.1952
    12.8663  13.5361

     occupation numbers 
     1.0000   1.0000   1.0000   1.0000   1.0000   1.0000   1.0000   1.0000
     1.0000   1.0000   1.0000   1.0000   1.0000   1.0000   0.0000   0.0000
     0.0000   0.0000

          k =-0.1632-0.3807 0.4895 (  1652 PWs)   bands (ev):

   -17.1494 -17.1390 -17.0702 -17.0259 -17.0168 -16.9606 -16.9459 -16.9274
   -16.8523 -16.8428  -2.3701   0.1831   4.1505   5.6131   9.5028  11.1816
    12.9237  14.4204

     occupation numbers 
     1.0000   1.0000   1.0000   1.0000   1.0000   1.0000   1.0000   1.0000
     1.0000   1.0000   1.0000   1.0000   1.0000   1.0000   0.0000   0.0000
     0.0000   0.0000

          k =-0.1088-0.3264 0.4351 (  1643 PWs)   bands (ev):

   -17.1473 -17.1392 -17.0719 -17.0336 -17.0159 -16.9601 -16.9376 -16.9280
   -16.8521 -16.8456  -2.6708   0.6228   4.1562   5.8113   9.6072  11.1733
    12.7202  13.7757

     occupation numbers 
     1.0000   1.0000   1.0000   1.0000   1.0000   1.0000   1.0000   1.0000
     1.0000   1.0000   1.0000   1.0000   1.0000   1.0000   0.0000   0.0000
     0.0000   0.0000

          k =-0.0544-0.2720 0.3807 (  1635 PWs)   bands (ev):

   -17.1420 -17.1380 -17.0798 -17.0422 -17.0194 -16.9589 -16.9257 -16.9215
   -16.8543 -16.8515  -3.1525   1.4142   4.3536   6.1059   9.7469  11.0258
    12.3580  13.0253

     occupation numbers 
     1.0000   1.0000   1.0000   1.0000   1.0000   1.0000   1.0000   1.0000
     1.0000   1.0000   1.0000   1.0000   1.0000   1.0000   0.0000   0.0000
     0.0000   0.0000

          k = 0.0000-0.2176 0.3264 (  1642 PWs)   bands (ev):

   -17.1354 -17.1342 -17.0912 -17.0495 -17.0282 -16.9523 -16.9203 -16.9062
   -16.8625 -16.8560  -3.6113   2.2747   4.8133   6.4284   9.7989  10.5275
    12.3092  12.4422

     occupation numbers 
     1.0000   1.0000   1.0000   1.0000   1.0000   1.0000   1.0000   1.0000
     1.0000   1.0000   1.0000   1.0000   1.0000   1.0000   0.0000   0.0000
     0.0000   0.0000

          k = 0.4351 0.1088 0.0000 (  1652 PWs)   bands (ev):

   -17.1357 -17.1346 -17.0999 -17.0352 -17.0015 -16.9890 -16.9272 -16.8930
   -16.8599 -16.8574  -3.2404   1.7355   4.9726   5.3855   8.9029   9.9974
    13.0815  14.1274

     occupation numbers 
     1.0000   1.0000   1.0000   1.0000   1.0000   1.0000   1.0000   1.0000
     1.0000   1.0000   1.0000   1.0000   1.0000   1.0000   0.0000   0.0000
     0.0000   0.0000

          k = 0.4895 0.1632-0.0544 (  1650 PWs)   bands (ev):

   -17.1434 -17.1380 -17.0859 -17.0257 -16.9977 -16.9919 -16.9375 -16.9077
   -16.8545 -16.8489  -2.7771   0.9859   4.4612   5.1819   9.2082  10.3371
    12.8080  14.4665

     occupation numbers 
     1.0000   1.0000   1.0000   1.0000   1.0000   1.0000   1.0000   1.0000
     1.0000   1.0000   1.0000   1.0000   1.0000   1.0000   0.0000   0.0000
     0.0000   0.0000

          k =-0.1632-0.4895 0.5983 (  1647 PWs)   bands (ev):

   -17.1500 -17.1401 -17.0722 -17.0167 -16.9995 -16.9882 -16.9484 -16.9218
   -16.8511 -16.8416  -2.2905   0.3062   4.0060   5.1165   9.2978  11.3327
    12.5689  14.3903

     occupation numbers 
     1.0000   1.0000   1.0000   1.0000   1.0000   1.0000   1.0000   1.0000
     1.0000   1.0000   1.0000   1.0000   1.0000   1.0000   0.0000   0.0000
     0.0000   0.0000

          k =-0.1088-0.4351 0.5439 (  1649 PWs)   bands (ev):

   -17.1535 -17.1415 -17.0636 -17.0112 -16.9992 -16.9851 -16.9577 -16.9302
   -16.8490 -16.8380  -2.0066  -0.0476   3.6999   5.2061   9.4025  12.0984
    12.9299  14.0353

     occupation numbers 
     1.0000   1.0000   1.0000   1.0000   1.0000   1.0000   1.0000   1.0000
     1.0000   1.0000   1.0000   1.0000   1.0000   1.0000   0.0000   0.0000
     0.0000   0.0000

          k =-0.0544-0.3807 0.4895 (  1644 PWs)   bands (ev):

   -17.1531 -17.1420 -17.0621 -17.0183 -17.0018 -16.9754 -16.9575 -16.9320
   -16.8485 -16.8388  -2.2139   0.2108   3.6098   5.4303   9.5820  12.0537
    13.1987  13.9894

     occupation numbers 
     1.0000   1.0000   1.0000   1.0000   1.0000   1.0000   1.0000   1.0000
     1.0000   1.0000   1.0000   1.0000   1.0000   1.0000   0.0000   0.0000
     0.0000   0.0000

          k = 0.0000-0.3264 0.4351 (  1648 PWs)   bands (ev):

   -17.1488 -17.1411 -17.0678 -17.0322 -17.0081 -16.9684 -16.9411 -16.9299
   -16.8497 -16.8442  -2.6819   0.8068   3.8055   5.7532   9.7775  11.7211
    12.4263  13.6839

     occupation numbers 
     1.0000   1.0000   1.0000   1.0000   1.0000   1.0000   1.0000   1.0000
     1.0000   1.0000   1.0000   1.0000   1.0000   1.0000   0.0000   0.0000
     0.0000   0.0000

          k = 0.5439 0.1088 0.0000 (  1648 PWs)   bands (ev):

   -17.1403 -17.1401 -17.0872 -17.0179 -17.0147 -16.9748 -16.9468 -16.9057
   -16.8515 -16.8511  -2.4676   0.5773   4.6394   4.8811   8.7093   9.4337
    14.1994  15.4176

     occupation numbers 
     1.0000   1.0000   1.0000   1.0000   1.0000   1.0000   1.0000   1.0000
     1.0000   1.0000   1.0000   1.0000   1.0000   1.0000   0.0000   0.0000
     0.0000   0.0000

          k =-0.1088-0.5439 0.6527 (  1651 PWs)   bands (ev):

   -17.1476 -17.1419 -17.0710 -17.0229 -17.0044 -16.9687 -16.9583 -16.9221
   -16.8486 -16.8433  -1.9681  -0.0330   4.1479   4.7757   9.0037  10.0032
    13.9111  15.4879

     occupation numbers 
     1.0000   1.0000   1.0000   1.0000   1.0000   1.0000   1.0000   1.0000
     1.0000   1.0000   1.0000   1.0000   1.0000   1.0000   0.0000   0.0000
     0.0000   0.0000

          k =-0.0544-0.4895 0.5983 (  1646 PWs)   bands (ev):

   -17.1533 -17.1430 -17.0597 -17.0157 -16.9957 -16.9743 -16.9688 -16.9331
   -16.8471 -16.8376  -1.5866  -0.4423   3.6862   4.8653   9.1355  11.2297
    13.6363  14.6991

     occupation numbers 
     1.0000   1.0000   1.0000   1.0000   1.0000   1.0000   1.0000   1.0000
     1.0000   1.0000   1.0000   1.0000   1.0000   1.0000   0.0000   0.0000
     0.0000   0.0000

          k = 0.0000-0.4351 0.5439 (  1647 PWs)   bands (ev):

   -17.1554 -17.1431 -17.0580 -16.9998 -16.9962 -16.9879 -16.9707 -16.9345
   -16.8470 -16.8359  -1.7528  -0.2555   3.4675   5.0947   9.3391  12.6441
    13.3991  13.4646

     occupation numbers 
     1.0000   1.0000   1.0000   1.0000   1.0000   1.0000   1.0000   1.0000
     1.0000   1.0000   1.0000   1.0000   1.0000   1.0000   0.0000   0.0000
     0.0000   0.0000

          k =-0.0544-0.5983 0.7071 (  1649 PWs)   bands (ev):

   -17.1430 -17.1429 -17.0685 -17.0450 -16.9921 -16.9690 -16.9486 -16.9250
   -16.8470 -16.8470  -1.5563  -0.5311   4.5075   4.5867   8.7305   8.9766
    15.3912  16.1272

     occupation numbers 
     1.0000   1.0000   1.0000   1.0000   1.0000   1.0000   1.0000   1.0000
     1.0000   1.0000   1.0000   1.0000   1.0000   1.0000   0.0000   0.0000
     0.0000   0.0000

          k = 0.0000-0.5439 0.6527 (  1646 PWs)   bands (ev):

   -17.1491 -17.1433 -17.0571 -17.0406 -16.9836 -16.9789 -16.9514 -16.9361
   -16.8464 -16.8412  -1.1762  -0.8958   4.0396   4.6401   8.9368   9.8661
    15.0541  15.1123

     occupation numbers 
     1.0000   1.0000   1.0000   1.0000   1.0000   1.0000   1.0000   1.0000
     1.0000   1.0000   1.0000   1.0000   1.0000   1.0000   0.0000   0.0000
     0.0000   0.0000

          k = 0.4351 0.2176 0.0000 (  1654 PWs)   bands (ev):

   -17.1415 -17.1400 -17.0826 -17.0353 -17.0070 -16.9784 -16.9298 -16.9138
   -16.8524 -16.8518  -3.0240   1.3291   4.3435   5.5657  10.1552  10.4398
    11.9472  13.9412

     occupation numbers 
     1.0000   1.0000   1.0000   1.0000   1.0000   1.0000   1.0000   1.0000
     1.0000   1.0000   1.0000   1.0000   1.0000   1.0000   0.0000   0.0000
     0.0000   0.0000

          k =-0.2176-0.4351 0.6527 (  1645 PWs)   bands (ev):

   -17.1483 -17.1421 -17.0694 -17.0264 -17.0006 -16.9826 -16.9414 -16.9265
   -16.8493 -16.8439  -2.5345   0.6211   3.9681   5.2781  10.2671  10.9842
    12.0190  14.3138

     occupation numbers 
     1.0000   1.0000   1.0000   1.0000   1.0000   1.0000   1.0000   1.0000
     1.0000   1.0000   1.0000   1.0000   1.0000   1.0000   0.0000   0.0000
     0.0000   0.0000

          k =-0.1632-0.3807 0.5983 (  1642 PWs)   bands (ev):

   -17.1522 -17.1430 -17.0614 -17.0185 -17.0002 -16.9811 -16.9530 -16.9326
   -16.8479 -16.8394  -2.1289   0.0863   3.7988   5.1062  10.2473  11.0735
    13.0175  14.0931

     occupation numbers 
     1.0000   1.0000   1.0000   1.0000   1.0000   1.0000   1.0000   1.0000
     1.0000   1.0000   1.0000   1.0000   1.0000   1.0000   0.0000   0.0000
     0.0000   0.0000

          k =-0.1632-0.4895 0.7071 (  1652 PWs)   bands (ev):

   -17.1466 -17.1445 -17.0700 -17.0160 -17.0050 -16.9835 -16.9489 -16.9234
   -16.8466 -16.8450  -2.2991   0.3830   4.0867   4.8233   9.9429  10.3856
    12.4977  15.1969

     occupation numbers 
     1.0000   1.0000   1.0000   1.0000   1.0000   1.0000   1.0000   1.0000
     1.0000   1.0000   1.0000   1.0000   1.0000   1.0000   0.0000   0.0000
     0.0000   0.0000

          k =-0.1088-0.4351 0.6527 (  1649 PWs)   bands (ev):

   -17.1520 -17.1462 -17.0555 -17.0092 -17.0048 -16.9794 -16.9614 -16.9365
   -16.8445 -16.8391  -1.8262  -0.1593   3.7883   4.6212  10.2116  11.3436
    12.2297  14.5188

     occupation numbers 
     1.0000   1.0000   1.0000   1.0000   1.0000   1.0000   1.0000   1.0000
     1.0000   1.0000   1.0000   1.0000   1.0000   1.0000   0.0000   0.0000
     0.0000   0.0000

          k =-0.0544-0.3807 0.5983 (  1647 PWs)   bands (ev):

   -17.1542 -17.1464 -17.0505 -17.0064 -16.9982 -16.9837 -16.9676 -16.9404
   -16.8441 -16.8368  -1.6802  -0.3149   3.6103   4.6665  10.3735  11.8477
    12.8718  13.1663

     occupation numbers 
     1.0000   1.0000   1.0000   1.0000   1.0000   1.0000   1.0000   1.0000
     1.0000   1.0000   1.0000   1.0000   1.0000   1.0000   0.0000   0.0000
     0.0000   0.0000

          k = 0.0000-0.3264 0.5439 (  1643 PWs)   bands (ev):

   -17.1526 -17.1454 -17.0563 -17.0145 -16.9929 -16.9890 -16.9579 -16.9361
   -16.8453 -16.8389  -2.0473   0.0869   3.6478   4.9122  10.5650  11.5174
    12.0488  14.3173

     occupation numbers 
     1.0000   1.0000   1.0000   1.0000   1.0000   1.0000   1.0000   1.0000
     1.0000   1.0000   1.0000   1.0000   1.0000   1.0000   0.0000   0.0000
     0.0000   0.0000

          k =-0.0544-0.4895 0.7071 (  1647 PWs)   bands (ev):

   -17.1488 -17.1479 -17.0523 -17.0301 -16.9939 -16.9710 -16.9603 -16.9395
   -16.8425 -16.8416  -1.4646  -0.5575   4.0702   4.3139   9.9173  10.0829
    13.6035  14.8062

     occupation numbers 
     1.0000   1.0000   1.0000   1.0000   1.0000   1.0000   1.0000   1.0000
     1.0000   1.0000   1.0000   1.0000   1.0000   1.0000   0.0000   0.0000
     0.0000   0.0000

          k = 0.0000-0.4351 0.6527 (  1643 PWs)   bands (ev):

   -17.1530 -17.1480 -17.0439 -17.0223 -16.9893 -16.9794 -16.9655 -16.9463
   -16.8423 -16.8376  -1.2494  -0.7537   3.7631   4.3512  10.1522  11.3139
    13.2982  13.3567

     occupation numbers 
     1.0000   1.0000   1.0000   1.0000   1.0000   1.0000   1.0000   1.0000
     1.0000   1.0000   1.0000   1.0000   1.0000   1.0000   0.0000   0.0000
     0.0000   0.0000

          k =-0.0544-0.3807 0.7071 (  1634 PWs)   bands (ev):

   -17.1529 -17.1500 -17.0392 -17.0174 -16.9956 -16.9765 -16.9683 -16.9495
   -16.8405 -16.8378  -1.3499  -0.6307   3.7763   4.2085  11.3772  11.4542
    12.0179  13.0752

     occupation numbers 
     1.0000   1.0000   1.0000   1.0000   1.0000   1.0000   1.0000   1.0000
     1.0000   1.0000   1.0000   1.0000   1.0000   1.0000   0.0000   0.0000
     0.0000   0.0000

     the Fermi energy is     7.5870 ev

!    total energy              =    -426.37974704 Ry
     estimated scf accuracy    <          7.1E-12 Ry
     smearing contrib. (-TS)   =       0.00012975 Ry
     internal energy E=F+TS    =    -426.37987679 Ry

     The total energy is F=E-TS. E is the sum of the following terms:
     one-electron contribution =    -284.53790845 Ry
     hartree contribution      =     167.27651908 Ry
     xc contribution           =    -115.21765489 Ry
     ewald contribution        =    -193.90083253 Ry

     convergence has been achieved in   9 iterations

     Forces acting on atoms (cartesian axes, Ry/au):

     atom    1 type  1   force =     0.00000000   -0.00000000    0.00000000
     atom    2 type  1   force =    -0.00000000   -0.00000000   -0.00000000
     The non-local contrib.  to forces
     atom    1 type  1   force =    -0.00000000   -0.00000000    0.00000000
     atom    2 type  1   force =     0.00000000    0.00000000   -0.00000000
     The ionic contribution  to forces
     atom    1 type  1   force =    -0.00000000   -0.00000000   -0.00000000
     atom    2 type  1   force =     0.00000000    0.00000000    0.00000000
     The local contribution  to forces
     atom    1 type  1   force =    -0.00000000   -0.00000000   -0.00000000
     atom    2 type  1   force =    -0.00000000   -0.00000000   -0.00000000
     The core correction contribution to forces
     atom    1 type  1   force =    -0.00000000   -0.00000000    0.00000000
     atom    2 type  1   force =    -0.00000000   -0.00000000   -0.00000000
     The Hubbard contrib.    to forces
     atom    1 type  1   force =     0.00000000    0.00000000    0.00000000
     atom    2 type  1   force =     0.00000000    0.00000000    0.00000000
     The SCF correction term to forces
     atom    1 type  1   force =     0.00000000    0.00000000    0.00000000
     atom    2 type  1   force =     0.00000000   -0.00000000    0.00000000

     Total force =     0.000000     Total SCF correction =     0.000000


     Computing stress (Cartesian axis) and pressure

          total   stress  (Ry/bohr**3)                   (kbar)     P=      -29.51
  -0.00020058   0.00000000   0.00000000          -29.51        0.00        0.00
   0.00000000  -0.00020058   0.00000000            0.00      -29.51        0.00
   0.00000000   0.00000000  -0.00020058            0.00        0.00      -29.51

     kinetic stress (kbar)   9459.50     -0.00     -0.00
                               -0.00   9459.50     -0.00
                               -0.00     -0.00   9459.50

     local   stress (kbar)    950.08     -0.00     -0.00
                               -0.00    950.08      0.00
                               -0.00      0.00    950.08

     nonloc. stress (kbar)   2821.59      0.00      0.00
                                0.00   2821.59      0.00
                                0.00      0.00   2821.59

     hartree stress (kbar)  25403.30     -0.00      0.00
                               -0.00  25403.30      0.00
                                0.00      0.00  25403.30

     exc-cor stress (kbar)  18587.22     -0.00      0.00
                               -0.00  18587.22     -0.00
                                0.00     -0.00  18587.22

     corecor stress (kbar) -27804.62      0.00      0.00
                                0.00 -27804.62      0.00
                                0.00      0.00 -27804.62

     ewald   stress (kbar) -29446.58      0.00     -0.00
                                0.00 -29446.58     -0.00
                               -0.00     -0.00 -29446.58

     hubbard stress (kbar)      0.00      0.00      0.00
                                0.00      0.00      0.00
                                0.00      0.00      0.00

     DFT-D   stress (kbar)      0.00      0.00      0.00
                                0.00      0.00      0.00
                                0.00      0.00      0.00

     XDM     stress (kbar)      0.00      0.00      0.00
                                0.00      0.00      0.00
                                0.00      0.00      0.00

     dft-nl  stress (kbar)      0.00      0.00      0.00
                                0.00      0.00      0.00
                                0.00      0.00      0.00

     TS-vdW  stress (kbar)      0.00      0.00      0.00
                                0.00      0.00      0.00
                                0.00      0.00      0.00

     MDB     stress (kbar)      0.00      0.00      0.00
                                0.00      0.00      0.00
                                0.00      0.00      0.00

     3D-RISM stress (kbar)      0.00      0.00      0.00
                                0.00      0.00      0.00
                                0.00      0.00      0.00


     Writing all to output data dir ./out/aiida.save/ :
     XML data file, charge density, pseudopotentials, collected wavefunctions

     init_run     :      8.58s CPU      5.83s WALL (       1 calls)
     electrons    :    257.85s CPU    133.37s WALL (       1 calls)
     forces       :      1.69s CPU      0.85s WALL (       1 calls)
     stress       :      7.37s CPU      3.99s WALL (       1 calls)

     Called by init_run:
     wfcinit      :      8.04s CPU      5.28s WALL (       1 calls)
     wfcinit:atom :      0.11s CPU      0.07s WALL (      84 calls)
     wfcinit:wfcr :      7.31s CPU      4.86s WALL (      84 calls)
     potinit      :      0.07s CPU      0.08s WALL (       1 calls)
     hinit0       :      0.25s CPU      0.26s WALL (       1 calls)

     Called by electrons:
     c_bands      :    213.04s CPU    108.26s WALL (      10 calls)
     sum_band     :     42.26s CPU     22.59s WALL (      10 calls)
     v_of_rho     :      0.64s CPU      0.62s WALL (      10 calls)
     v_h          :      0.03s CPU      0.03s WALL (      10 calls)
     v_xc         :      0.86s CPU      0.74s WALL (      12 calls)
     newd         :      1.99s CPU      1.98s WALL (      10 calls)
     mix_rho      :      0.06s CPU      0.07s WALL (      10 calls)

     Called by c_bands:
     init_us_2    :      4.94s CPU      2.16s WALL (    1932 calls)
     cegterg      :    203.53s CPU    103.54s WALL (     840 calls)

     Called by sum_band:
     sum_band:wei :      0.06s CPU      0.03s WALL (      10 calls)
     sum_band:loo :     37.42s CPU     19.65s WALL (      10 calls)
     sum_band:buf :      0.21s CPU      0.07s WALL (     840 calls)
     sum_band:ini :      2.13s CPU      0.97s WALL (     840 calls)
     sum_band:cal :      1.67s CPU      0.93s WALL (     840 calls)
     sum_band:bec :      0.06s CPU      0.02s WALL (     840 calls)
     addusdens    :      4.63s CPU      2.80s WALL (      10 calls)
                                        0.00s GPU  (      10 calls)
     addusd:skk   :      0.01s CPU      0.01s WALL (      10 calls)
                                        0.00s GPU  (      10 calls)

     Called by *egterg:
     cdiaghg      :      5.64s CPU      2.31s WALL (    2583 calls)
     cegterg:over :      5.49s CPU      1.81s WALL (    1827 calls)
     cegterg:upda :      3.06s CPU      1.23s WALL (    1827 calls)
     cegterg:last :      5.18s CPU      1.66s WALL (    1569 calls)
     h_psi        :    182.63s CPU     97.98s WALL (    2751 calls)
     s_psi        :      3.62s CPU      1.34s WALL (    2751 calls)
     g_psi        :      0.94s CPU      0.30s WALL (    1827 calls)

     Called by h_psi:
     h_psi:calbec :      6.22s CPU      4.81s WALL (    2751 calls)
     vloc_psi     :    172.66s CPU     91.69s WALL (    2751 calls)
                                        0.00s GPU  (    2751 calls)
     add_vuspsi   :      3.19s CPU      1.25s WALL (    2751 calls)

     General routines
     calbec       :     10.05s CPU      6.76s WALL (    5019 calls)
     fft          :      0.50s CPU      0.43s WALL (     154 calls)
     ffts         :      0.06s CPU      0.03s WALL (      20 calls)
     fftw         :    185.77s CPU     99.28s WALL (   93002 calls)
     interpolate  :      0.04s CPU      0.04s WALL (      10 calls)

     Parallel routines

     PWSCF        :   4m35.84s CPU   2m24.31s WALL


   This run was terminated on:   0: 1:37  25Dec2025            

=------------------------------------------------------------------------------=
   JOB DONE.
=------------------------------------------------------------------------------=
